 vasp.5.4.1 24Jun15 (build Aug 03 2015 13:31:17) complex

 executed on      LinuxIFC_2015xe date 2021.08.15  07:08:49

 INCAR:
 POTCAR:    PAW_PBE Cu 22Jun2005
 POTCAR:   PAW_PBE O 08Apr2002
 POTCAR:   PAW_PBE C 08Apr2002
 POTCAR:   PAW_PBE H 15Jun2001
 POTCAR:   PAW_PBE N 08Apr2002

 POTCAR:    PAW_PBE Cu 22Jun2005
   VRHFIN =Cu: d10 p1

   TITEL  = PAW_PBE Cu 22Jun2005
   POMASS =   63.546; ZVAL   =   11.000    mass and valenz
   ENMAX  =  295.446; ENMIN  =  221.585 eV

 POTCAR:   PAW_PBE O 08Apr2002
   VRHFIN =O: s2p4

   TITEL  = PAW_PBE O 08Apr2002
   POMASS =   16.000; ZVAL   =    6.000    mass and valenz
   ENMAX  =  400.000; ENMIN  =  300.000 eV
   QCUT   =   -5.520; QGAM   =   11.041    optimization parameters

   Description
     l     E      TYP  RCUT    TYP  RCUT
     0   .000     23  1.200
     0  -.700     23  1.200
     1   .000     23  1.520
     1   .600     23  1.520
     2   .000      7  1.500

 POTCAR:   PAW_PBE C 08Apr2002
   VRHFIN =C: s2p2

[...]

 POTCAR:   PAW_PBE H 15Jun2001
   VRHFIN =H: ultrasoft test

   TITEL  = PAW_PBE H 15Jun2001
   POMASS =    1.000; ZVAL   =    1.000    mass and valenz
   ENMAX  =  250.000; ENMIN  =  200.000 eV
   QCUT   =   -5.749; QGAM   =   11.498    optimization parameters

[...]

 POTCAR:   PAW_PBE N 08Apr2002
   VRHFIN =N: s2p3

   TITEL  = PAW_PBE N 08Apr2002
   POMASS =   14.001; ZVAL   =    5.000    mass and valenz
   ENMAX  =  400.000; ENMIN  =  300.000 eV
   QCUT   =   -5.562; QGAM   =   11.124    optimization parameters

   Description
     l     E      TYP  RCUT    TYP  RCUT
     0   .000     23  1.200
     0   .000     23  1.200
     1   .000     23  1.500
     1   .700     23  1.500
     2   .000      7  1.500

  PAW_PBE Cu 22Jun2005                  :
 PAW_PBE O 08Apr2002                    :
 PAW_PBE C 08Apr2002                    :
 PAW_PBE H 15Jun2001                    :
 PAW_PBE N 08Apr2002                    :

 POSCAR: C4 H9 Cu N3 O6
  positions in direct lattice
  velocities in cartesian coordinates
 exchange correlation table for  LEXCH =        8
   RHO(1)=    0.500       N(1)  =     2000
   RHO(2)=  100.500       N(2)  =     4000

 ion  position               nearest neighbor table
   1  0.984  0.002  0.498-   5 1.97  21 1.99  13 2.02  18 2.03
   2  0.016  0.998  0.998-   6 1.97  22 1.99  14 2.02  17 2.03
   3  0.484  0.498  0.498-   7 1.97  23 1.99  15 2.02  20 2.03
   4  0.516  0.502  0.998-   8 1.97  24 1.99  16 2.02  19 2.03
   5  0.858  0.846  0.576-  29 1.28   1 1.97
   6  0.142  0.154  0.076-  30 1.28   2 1.97
   7  0.358  0.654  0.576-  31 1.28   3 1.97
   8  0.642  0.346  0.076-  32 1.28   4 1.97
   9  0.705  0.648  0.561-  29 1.25
  10  0.295  0.352  0.061-  30 1.25
  11  0.205  0.852  0.561-  31 1.25
  12  0.795  0.148  0.061-  32 1.25
  13  0.987  0.120  0.650-  33 1.27   1 2.02
  14  0.013  0.880  0.150-  34 1.27   2 2.02
  15  0.487  0.380  0.650-  35 1.27   3 2.02
  16  0.513  0.620  0.150-  36 1.27   4 2.02
  17  0.019  0.118  0.846-  33 1.27   2 2.03
  18  0.981  0.882  0.346-  34 1.27   1 2.03
  19  0.519  0.382  0.846-  35 1.27   4 2.03
  20  0.481  0.618  0.346-  36 1.27   3 2.03
  21  0.158  0.121  0.430-  37 1.29   1 1.99
  22  0.842  0.879  0.930-  38 1.29   2 1.99
  23  0.658  0.379  0.430-  39 1.29   3 1.99
  24  0.342  0.621  0.930-  40 1.29   4 1.99
  25  0.309  0.322  0.415-  37 1.26
  26  0.691  0.678  0.915-  38 1.26
  27  0.809  0.178  0.415-  39 1.26
  28  0.191  0.822  0.915-  40 1.26
  29  0.740  0.777  0.531-  45 1.11   9 1.25   5 1.28
  30  0.260  0.223  0.031-  46 1.11  10 1.25   6 1.28
  31  0.240  0.723  0.531-  47 1.11  11 1.25   7 1.28
  32  0.760  0.277  0.031-  48 1.11  12 1.25   8 1.28
  33  0.014  0.052  0.747-  49 1.10  17 1.27  13 1.27
  34  0.986  0.948  0.247-  50 1.10  18 1.27  14 1.27
  35  0.514  0.448  0.747-  51 1.10  19 1.27  15 1.27
  36  0.486  0.552  0.247-  52 1.10  20 1.27  16 1.27
  37  0.190  0.256  0.455-  53 1.11  25 1.26  21 1.29
  38  0.810  0.744  0.955-  54 1.11  26 1.26  22 1.29
  39  0.690  0.244  0.455-  55 1.11  27 1.26  23 1.29
  40  0.310  0.756  0.955-  56 1.11  28 1.26  24 1.29
  41  0.007  0.505  0.748-  81 1.33  85 1.34  89 1.34
  42  0.993  0.495  0.248-  82 1.33  86 1.34  90 1.34
  43  0.507  0.995  0.748-  83 1.33  87 1.34  91 1.34
  44  0.493  0.005  0.248-  84 1.33  88 1.34  92 1.34
  45  0.669  0.835  0.464-  29 1.11
  46  0.331  0.165  0.964-  30 1.11
  47  0.169  0.665  0.464-  31 1.11
  48  0.831  0.335  0.964-  32 1.11
  49  0.036  0.933  0.744-  33 1.10
  50  0.964  0.067  0.244-  34 1.10
  51  0.536  0.567  0.744-  35 1.10
  52  0.464  0.433  0.244-  36 1.10
  53  0.108  0.316  0.514-  37 1.11
  54  0.892  0.684  0.014-  38 1.11
  55  0.608  0.184  0.514-  39 1.11
  56  0.392  0.816  0.014-  40 1.11
  57  0.088  0.707  0.805-  81 1.03
  58  0.912  0.293  0.305-  82 1.03
  59  0.588  0.793  0.805-  83 1.03
  60  0.412  0.207  0.305-  84 1.03
[...]
  78  0.090  0.676  0.168-  90 1.02
  79  0.410  0.176  0.668-  91 1.02
  80  0.590  0.824  0.168-  92 1.02
  81  0.019  0.652  0.744-  61 1.03  57 1.03  41 1.33
  82  0.981  0.348  0.244-  62 1.03  58 1.03  42 1.33
  83  0.519  0.848  0.744-  63 1.03  59 1.03  43 1.33
  84  0.481  0.152  0.244-  64 1.03  60 1.03  44 1.33
  85  0.099  0.428  0.822-  69 1.02  65 1.02  41 1.34
  86  0.901  0.572  0.322-  70 1.02  66 1.02  42 1.34
  87  0.599  0.072  0.822-  71 1.02  67 1.02  43 1.34
  88  0.401  0.928  0.322-  72 1.02  68 1.02  44 1.34
  89  0.904  0.436  0.678-  77 1.02  73 1.03  41 1.34
  90  0.096  0.564  0.178-  78 1.02  74 1.03  42 1.34
  91  0.404  0.064  0.678-  79 1.02  75 1.03  43 1.34
  92  0.596  0.936  0.178-  80 1.02  76 1.03  44 1.34

  LATTYP: Found a simple orthorhombic cell.
 ALAT       =     8.4977917304
 B/A-ratio  =     1.0675315931
 C/A-ratio  =     1.3257833227

  Lattice vectors:

 A1 = (   8.4977917304,   0.0000000000,   0.0000000000)
 A2 = (   0.0000000000,   9.0716611441,   0.0000000000)
 A3 = (   0.0000000000,   0.0000000000,  11.2662305557)

Analysis of symmetry for initial positions (statically):
 Subroutine PRICEL returns:
 Original cell was already a primitive cell.

 Routine SETGRP: Setting up the symmetry group for a
 simple orthorhombic supercell.

 Subroutine GETGRP returns: Found  4 space group operations
 (whereof  1 operations were pure point group operations)
 out of a pool of  8 trial point group operations.

The static configuration has the point symmetry C_1 .
 The point group associated with its full space group is C_2v.

Analysis of symmetry for dynamics (positions and initial velocities):
 Subroutine PRICEL returns:
 Original cell was already a primitive cell.

 Routine SETGRP: Setting up the symmetry group for a
 simple orthorhombic supercell.

 Subroutine GETGRP returns: Found  4 space group operations
 (whereof  1 operations were pure point group operations)
 out of a pool of  8 trial point group operations.

The dynamic configuration has the point symmetry C_1 .
 The point group associated with its full space group is C_2v.

Analysis of magnetic symmetry:
 Subroutine PRICEL returns:
 Original cell was already a primitive cell.

 Subroutine MAGSYM returns: Found  4 space group operations
 (whereof  1 operations were pure point group operations)
 out of a pool of  4 trial space group operations
 (whereof  1 operations were pure point group operations)
 and found also     1 'primitive' translations

The magnetic configuration has the point symmetry C_1 .
 The point group associated with its full space group is C_2v.

 KPOINTS: Automatic mesh

Automatic generation of k-mesh.
Space group operators:
 irot       det(A)        alpha          n_x          n_y          n_z        tau_x        tau_y        tau_z
    1     1.000000     0.000000     1.000000     0.000000     0.000000     0.000000     0.000000     0.000000
    2     1.000000   180.000000     0.000000     0.000000     1.000000     0.000000     0.000000     0.500000
    3    -1.000000   180.000000     0.000000     1.000000     0.000000     0.500000     0.500000     0.000000
    4    -1.000000   180.000000     1.000000     0.000000     0.000000     0.500000     0.500000     0.500000

 Subroutine IBZKPT returns following result:

 Found      8 irreducible k-points:

 Following reciprocal coordinates:
            Coordinates               Weight
  0.125000  0.125000  0.000000      4.000000
  0.375000  0.125000  0.000000      4.000000
  0.125000  0.375000  0.000000      4.000000
  0.375000  0.375000  0.000000      4.000000
  0.125000  0.125000  0.333333      8.000000
  0.375000  0.125000  0.333333      8.000000
  0.125000  0.375000  0.333333      8.000000
  0.375000  0.375000  0.333333      8.000000

 Following cartesian coordinates:
            Coordinates               Weight
  0.014710  0.013779  0.000000      4.000000
  0.044129  0.013779  0.000000      4.000000
  0.014710  0.041338  0.000000      4.000000
  0.044129  0.041338  0.000000      4.000000
  0.014710  0.013779  0.029587      8.000000
  0.044129  0.013779  0.029587      8.000000
  0.014710  0.041338  0.029587      8.000000
  0.044129  0.041338  0.029587      8.000000

 Subroutine IBZKPT_HF returns following result:

 Found     48 k-points in 1st BZ
 the following     48 k-points will be used (e.g. in the exchange kernel)
 Following reciprocal coordinates:   # in IRBZ
  0.125000  0.125000  0.000000    0.02083333   1 t-inv F
  0.375000  0.125000  0.000000    0.02083333   2 t-inv F
  0.125000  0.375000  0.000000    0.02083333   3 t-inv F
  0.375000  0.375000  0.000000    0.02083333   4 t-inv F
  0.125000  0.125000  0.333333    0.02083333   5 t-inv F
  0.375000  0.125000  0.333333    0.02083333   6 t-inv F
  0.125000  0.375000  0.333333    0.02083333   7 t-inv F
  0.375000  0.375000  0.333333    0.02083333   8 t-inv F
 -0.125000 -0.125000  0.000000    0.02083333   1 t-inv F spinflp
  0.125000 -0.125000  0.000000    0.02083333   1 t-inv F
 -0.125000  0.125000  0.000000    0.02083333   1 t-inv F spinflp
 -0.375000 -0.125000  0.000000    0.02083333   2 t-inv F spinflp
  0.375000 -0.125000  0.000000    0.02083333   2 t-inv F
 -0.375000  0.125000  0.000000    0.02083333   2 t-inv F spinflp
 -0.125000 -0.375000  0.000000    0.02083333   3 t-inv F spinflp
  0.125000 -0.375000  0.000000    0.02083333   3 t-inv F
 -0.125000  0.375000  0.000000    0.02083333   3 t-inv F spinflp
 -0.375000 -0.375000  0.000000    0.02083333   4 t-inv F spinflp
  0.375000 -0.375000  0.000000    0.02083333   4 t-inv F
 -0.375000  0.375000  0.000000    0.02083333   4 t-inv F spinflp
 -0.125000 -0.125000  0.333333    0.02083333   5 t-inv F spinflp
  0.125000 -0.125000  0.333333    0.02083333   5 t-inv F
 -0.125000  0.125000  0.333333    0.02083333   5 t-inv F spinflp
 -0.375000 -0.125000  0.333333    0.02083333   6 t-inv F spinflp
  0.375000 -0.125000  0.333333    0.02083333   6 t-inv F
 -0.375000  0.125000  0.333333    0.02083333   6 t-inv F spinflp
 -0.125000 -0.375000  0.333333    0.02083333   7 t-inv F spinflp
  0.125000 -0.375000  0.333333    0.02083333   7 t-inv F
 -0.125000  0.375000  0.333333    0.02083333   7 t-inv F spinflp
 -0.375000 -0.375000  0.333333    0.02083333   8 t-inv F spinflp
  0.375000 -0.375000  0.333333    0.02083333   8 t-inv F
[...]
   -.106E+03 -.310E+02 0.838E+02   0.104E+03 0.679E+02 -.977E+02   0.181E+01 -.369E+02 0.139E+02   -.358E-03 0.715E-03 -.381E-04
   0.106E+03 0.310E+02 0.838E+02   -.104E+03 -.679E+02 -.977E+02   -.181E+01 0.369E+02 0.139E+02   0.366E-03 -.702E-03 0.969E-04
   -.329E+02 -.506E+02 0.696E+02   0.685E+02 0.732E+02 -.864E+02   -.356E+02 -.226E+02 0.168E+02   0.508E-03 0.448E-03 -.267E-03
   0.329E+02 0.506E+02 0.696E+02   -.685E+02 -.732E+02 -.864E+02   0.356E+02 0.226E+02 0.168E+02   -.499E-03 -.438E-03 -.147E-03
   -.329E+02 0.506E+02 0.696E+02   0.685E+02 -.732E+02 -.864E+02   -.356E+02 0.226E+02 0.168E+02   0.504E-03 -.447E-03 -.262E-03
   0.329E+02 -.506E+02 0.696E+02   -.685E+02 0.732E+02 -.864E+02   0.356E+02 -.226E+02 0.168E+02   -.501E-03 0.434E-03 -.151E-03
   0.894E+02 -.763E+02 0.927E+02   -.934E+02 0.792E+02 -.975E+02   0.396E+01 -.293E+01 0.483E+01   -.182E-03 0.196E-03 -.279E-03
   -.894E+02 0.763E+02 0.927E+02   0.934E+02 -.792E+02 -.975E+02   -.396E+01 0.293E+01 0.483E+01   0.202E-03 -.198E-03 -.183E-03
   0.894E+02 0.763E+02 0.927E+02   -.934E+02 -.792E+02 -.975E+02   0.396E+01 0.293E+01 0.483E+01   -.202E-03 -.198E-03 -.279E-03
   -.894E+02 -.763E+02 0.927E+02   0.934E+02 0.792E+02 -.975E+02   -.396E+01 -.293E+01 0.483E+01   0.181E-03 0.199E-03 -.182E-03
   -.266E+02 0.827E+02 0.354E+01   0.278E+02 -.906E+02 -.367E+01   -.117E+01 0.791E+01 0.126E+00   0.466E-04 -.417E-03 -.206E-04
   0.266E+02 -.827E+02 0.354E+01   -.278E+02 0.906E+02 -.367E+01   0.117E+01 -.791E+01 0.126E+00   -.562E-04 0.407E-03 -.822E-06
   -.266E+02 -.827E+02 0.354E+01   0.278E+02 0.906E+02 -.367E+01   -.117E+01 -.791E+01 0.126E+00   0.567E-04 0.412E-03 -.119E-04
   0.266E+02 0.827E+02 0.354E+01   -.278E+02 -.906E+02 -.367E+01   0.117E+01 0.791E+01 0.126E+00   -.452E-04 -.413E-03 -.931E-05
   0.728E+02 -.998E+02 -.859E+02   -.770E+02 0.104E+03 0.901E+02   0.419E+01 -.377E+01 -.420E+01   -.265E-03 0.173E-03 0.166E-03
   -.728E+02 0.998E+02 -.859E+02   0.770E+02 -.104E+03 0.901E+02   -.419E+01 0.377E+01 -.420E+01   0.258E-03 -.173E-03 0.248E-03
   0.728E+02 0.998E+02 -.859E+02   -.770E+02 -.104E+03 0.901E+02   0.419E+01 0.377E+01 -.420E+01   -.257E-03 -.170E-03 0.163E-03
   -.728E+02 -.998E+02 -.859E+02   0.770E+02 0.104E+03 0.901E+02   -.419E+01 -.377E+01 -.420E+01   0.265E-03 0.172E-03 0.250E-03
   0.873E+00 0.235E+02 0.271E+01   -.837E+00 -.234E+02 -.278E+01   -.389E-01 -.960E-01 0.700E-01   -.131E-04 -.115E-04 -.335E-04
   -.873E+00 -.235E+02 0.271E+01   0.836E+00 0.234E+02 -.278E+01   0.389E-01 0.960E-01 0.700E-01   0.173E-05 0.250E-04 -.157E-04
   0.873E+00 -.235E+02 0.271E+01   -.837E+00 0.234E+02 -.278E+01   -.389E-01 0.960E-01 0.700E-01   -.224E-05 0.166E-04 -.246E-04
   -.873E+00 0.235E+02 0.271E+01   0.836E+00 -.234E+02 -.278E+01   0.389E-01 -.960E-01 0.700E-01   0.134E-04 -.198E-04 -.247E-04
   0.353E+02 -.332E+02 0.394E+02   -.384E+02 0.359E+02 -.433E+02   0.313E+01 -.268E+01 0.391E+01   -.799E-04 0.707E-04 -.102E-03
   -.353E+02 0.332E+02 0.394E+02   0.384E+02 -.359E+02 -.433E+02   -.313E+01 0.268E+01 0.391E+01   0.848E-04 -.716E-04 -.791E-04
   0.353E+02 0.332E+02 0.394E+02   -.384E+02 -.359E+02 -.433E+02   0.313E+01 0.268E+01 0.391E+01   -.844E-04 -.708E-04 -.101E-03
   -.353E+02 -.332E+02 0.394E+02   0.384E+02 0.359E+02 -.433E+02   -.313E+01 -.268E+01 0.391E+01   0.803E-04 0.722E-04 -.795E-04
   -.129E+02 0.478E+02 -.142E+00   0.140E+02 -.537E+02 -.144E-01   -.104E+01 0.590E+01 0.154E+00   0.231E-04 -.151E-03 -.118E-04
   0.129E+02 -.478E+02 -.142E+00   -.140E+02 0.537E+02 -.144E-01   0.104E+01 -.590E+01 0.154E+00   -.252E-04 0.146E-03 -.694E-05
   -.129E+02 -.478E+02 -.142E+00   0.140E+02 0.537E+02 -.144E-01   -.104E+01 -.590E+01 0.154E+00   0.259E-04 0.150E-03 -.974E-05
   0.129E+02 0.478E+02 -.142E+00   -.140E+02 -.537E+02 -.144E-01   0.104E+01 0.590E+01 0.154E+00   -.221E-04 -.146E-03 -.907E-05
   0.299E+02 -.426E+02 -.344E+02   -.334E+02 0.453E+02 0.379E+02   0.360E+01 -.279E+01 -.347E+01   -.919E-04 0.830E-04 0.732E-04
   -.299E+02 0.426E+02 -.344E+02   0.334E+02 -.453E+02 0.379E+02   -.360E+01 0.279E+01 -.347E+01   0.894E-04 -.821E-04 0.951E-04
   0.299E+02 0.426E+02 -.344E+02   -.334E+02 -.453E+02 0.379E+02   0.360E+01 0.279E+01 -.347E+01   -.889E-04 -.823E-04 0.726E-04
   -.299E+02 -.426E+02 -.344E+02   0.334E+02 0.453E+02 0.379E+02   -.360E+01 -.279E+01 -.347E+01   0.921E-04 0.821E-04 0.956E-04
   -.259E+02 -.191E+02 -.250E+02   0.299E+02 0.227E+02 0.297E+02   -.404E+01 -.354E+01 -.466E+01   0.558E-04 0.807E-04 0.638E-04
   0.259E+02 0.191E+02 -.250E+02   -.299E+02 -.227E+02 0.297E+02   0.404E+01 0.354E+01 -.466E+01   -.585E-04 -.811E-04 0.596E-04
   -.259E+02 0.191E+02 -.250E+02   0.299E+02 -.227E+02 0.297E+02   -.404E+01 0.354E+01 -.466E+01   0.586E-04 -.808E-04 0.657E-04
   0.259E+02 -.191E+02 -.250E+02   -.299E+02 0.227E+02 0.297E+02   0.404E+01 -.354E+01 -.466E+01   -.554E-04 0.820E-04 0.575E-04
[...]
   0.671E+01 -.463E+02 0.780E+01   -.631E+01 0.537E+02 -.865E+01   -.379E+00 -.735E+01 0.863E+00   -.102E-04 0.111E-03 -.390E-04
   -.671E+01 0.463E+02 0.780E+01   0.631E+01 -.537E+02 -.865E+01   0.379E+00 0.735E+01 0.863E+00   0.114E-04 -.111E-03 -.266E-04
   -.888E+01 -.611E+02 0.649E+01   0.105E+02 0.692E+02 -.700E+01   -.166E+01 -.816E+01 0.512E+00   -.764E-05 0.260E-03 -.448E-04
   0.888E+01 0.611E+02 0.649E+01   -.105E+02 -.692E+02 -.700E+01   0.166E+01 0.816E+01 0.512E+00   -.887E-05 -.256E-03 -.217E-04
   -.888E+01 0.611E+02 0.649E+01   0.105E+02 -.692E+02 -.700E+01   -.166E+01 0.816E+01 0.512E+00   0.770E-05 -.257E-03 -.328E-04
   0.888E+01 -.611E+02 0.649E+01   -.105E+02 0.692E+02 -.700E+01   0.166E+01 -.816E+01 0.512E+00   0.768E-05 0.263E-03 -.343E-04
   -.422E+02 0.617E+02 -.556E+02   0.470E+02 -.656E+02 0.601E+02   -.475E+01 0.398E+01 -.449E+01   0.147E-03 -.113E-03 0.174E-03
   0.422E+02 -.617E+02 -.556E+02   -.470E+02 0.656E+02 0.601E+02   0.475E+01 -.398E+01 -.449E+01   -.161E-03 0.130E-03 0.144E-03
   -.422E+02 -.617E+02 -.556E+02   0.470E+02 0.656E+02 0.601E+02   -.475E+01 -.398E+01 -.449E+01   0.155E-03 0.119E-03 0.184E-03
   0.422E+02 0.617E+02 -.556E+02   -.470E+02 -.656E+02 0.601E+02   0.475E+01 0.398E+01 -.449E+01   -.151E-03 -.127E-03 0.133E-03
   0.559E+02 0.667E+02 0.558E+02   -.629E+02 -.699E+02 -.585E+02   0.701E+01 0.321E+01 0.278E+01   -.146E-03 -.577E-04 -.205E-03
   -.559E+02 -.667E+02 0.558E+02   0.629E+02 0.699E+02 -.585E+02   -.701E+01 -.321E+01 0.278E+01   0.145E-03 0.739E-04 -.136E-03
   0.559E+02 -.667E+02 0.558E+02   -.629E+02 0.699E+02 -.585E+02   0.701E+01 -.321E+01 0.278E+01   -.140E-03 0.647E-04 -.197E-03
   -.559E+02 0.667E+02 0.558E+02   0.629E+02 -.699E+02 -.585E+02   -.701E+01 0.321E+01 0.278E+01   0.151E-03 -.683E-04 -.143E-03
   0.626E-02 0.103E-01 0.216E+02   -.171E-12 -.540E-12 0.384E-12   0.888E-15 0.142E-13 -.216E+02   -.104E-06 -.516E-04 -.155E-03

 POSITION                                       TOTAL-FORCE (eV/Angst)
      8.36123      0.01375      5.61345         0.002233      0.001775     -0.000046
      0.13656      9.05791     11.24657        -0.002233     -0.001775     -0.000046
      4.11233      4.52208      5.61345         0.002233     -0.001775     -0.000046
      4.38546      4.54958     11.24657        -0.002233      0.001775     -0.000046
      7.29283      7.67819      6.48662         0.000046      0.000769      0.000423
      1.20496      1.39347      0.85351        -0.000046     -0.000769      0.000423
      3.04394      5.92930      6.48662         0.000046     -0.000769      0.000423
      5.45386      3.14236      0.85351        -0.000046      0.000769      0.000423
      5.98804      5.87974      6.32379        -0.000465      0.000029     -0.001269
      2.50975      3.19192      0.69068         0.000465     -0.000029     -0.001269
      1.73915      7.72775      6.32379        -0.000465     -0.000029     -0.001269
      6.75865      1.34391      0.69068         0.000465      0.000029     -0.001269
      8.38446      1.08466      7.32146         0.001118     -0.001396      0.002802
      0.11333      7.98700      1.68835        -0.001118      0.001396      0.002802
      4.13556      3.45117      7.32146         0.001118      0.001396      0.002802
      4.36223      5.62049      1.68835        -0.001118     -0.001396      0.002802
      0.16352      1.07218      9.53269         0.000798      0.000136     -0.001384
      8.33428      7.99948      3.89958        -0.000798     -0.000136     -0.001384
      4.41241      3.46365      9.53269         0.000798     -0.000136     -0.001384
      4.08538      5.60801      3.89958        -0.000798      0.000136     -0.001384
      1.34069      1.09932      4.84726         0.001050      0.000013      0.000771
      7.15711      7.97234     10.48037        -0.001050     -0.000013      0.000771
      5.58958      3.43651      4.84726         0.001050     -0.000013      0.000771
      2.90821      5.63516     10.48037        -0.001050      0.000013      0.000771
      2.62335      2.91760      4.67288         0.001605     -0.000425     -0.000981
      5.87444      6.15407     10.30599        -0.001605      0.000425     -0.000981
      6.87225      1.61823      4.67288         0.001605      0.000425     -0.000981
      1.62554      7.45343     10.30599        -0.001605     -0.000425     -0.000981
      6.29133      7.04792      5.98611         0.001263     -0.001089      0.001207
      2.20646      2.02374      0.35300        -0.001263      0.001089      0.001207
      2.04243      6.55957      5.98611         0.001263      0.001089      0.001207
      6.45536      2.51209      0.35300        -0.001263     -0.001089      0.001207
      0.12245      0.47321      8.41202         0.000773      0.002931      0.001082
      8.37534      8.59845      2.77891        -0.000773     -0.002931      0.001082
      4.37135      4.06262      8.41202         0.000773     -0.002931      0.001082
      4.12645      5.00904      2.77891        -0.000773      0.002931      0.001082
      1.61126      2.32568      5.12251        -0.001303     -0.001151      0.000904
      6.88653      6.74599     10.75563         0.001303      0.001151      0.000904
      5.86016      2.21015      5.12251        -0.001303      0.001151      0.000904
      2.63764      6.86151     10.75563         0.001303     -0.001151      0.000904
      0.06317      4.58458      8.42857        -0.001693     -0.001763     -0.001762
      8.43462      4.48708      2.79546         0.001693      0.001763     -0.001762
      4.31207      9.02291      8.42857        -0.001693      0.001763     -0.001762
      4.18572      0.04875      2.79546         0.001693     -0.001763     -0.001762
      5.68380      7.57571      5.22257         0.002023      0.000540     -0.000736
      2.81399      1.49595     10.85569        -0.002023     -0.000540     -0.000736
      1.43491      6.03178      5.22257         0.002023     -0.000540     -0.000736
      7.06288      3.03988     10.85569        -0.002023      0.000540     -0.000736
      0.30714      8.46441      8.38290         0.002089     -0.000255     -0.000171
      8.19065      0.60725      2.74978        -0.002089      0.000255     -0.000171
      4.55604      5.14308      8.38290         0.002089      0.000255     -0.000171
      3.94176      3.92858      2.74978        -0.002089     -0.000255     -0.000171
      0.91405      2.86476      5.79248        -0.000484      0.000265     -0.000062
      7.58374      6.20690      0.15937         0.000484     -0.000265     -0.000062
      5.16295      1.67107      5.79248        -0.000484     -0.000265     -0.000062
      3.33484      7.40059      0.15937         0.000484      0.000265     -0.000062
      0.75195      6.41197      9.06971         0.000327     -0.000599     -0.000197
      7.74584      2.65969      3.43660        -0.000327      0.000599     -0.000197
      5.00085      7.19552      9.06971         0.000327      0.000599     -0.000197
      3.49695      1.87614      3.43660        -0.000327     -0.000599     -0.000197
[...]
      0.76133      6.13285      1.89427        -0.000345      0.000818      0.000044
      3.48757      1.59702      7.52738         0.000345      0.000818      0.000044
      5.01022      7.47464      1.89427        -0.000345     -0.000818      0.000044
      0.16132      5.91204      8.38763         0.000455     -0.001496      0.000109
      8.33647      3.15962      2.75451        -0.000455      0.001496      0.000109
      4.41021      7.69545      8.38763         0.000455      0.001496      0.000109
      4.08758      1.37621      2.75451        -0.000455     -0.001496      0.000109
      0.84341      3.88602      9.26470         0.000369      0.000268     -0.000428
      7.65439      5.18565      3.63158        -0.000369     -0.000268     -0.000428
      5.09230      0.64982      9.26470         0.000369     -0.000268     -0.000428
      3.40549      8.42185      3.63158        -0.000369      0.000268     -0.000428
      7.67813      3.95277      7.63872         0.002447     -0.000927      0.002165
      0.81966      5.11889      2.00560        -0.002447      0.000927      0.002165
      3.42923      0.58306      7.63872         0.002447      0.000927      0.002165
      5.06856      8.48860      2.00560        -0.002447     -0.000927      0.002165
    total drift:                                0.006264      0.010293      0.004357

  FREE ENERGIE OF THE ION-ELECTRON SYSTEM (eV)
  free  energy   TOTEN  =      -568.04268550 eV

  energy  without entropy=     -568.04268532  energy(sigma->0) =     -568.04268541

 total charge

[...]

 magnetization (x)

# of ion     s       p       d       tot
  1       -0.003  -0.003   0.615   0.609
  2        0.003   0.003  -0.616  -0.609
  3       -0.003  -0.002   0.578   0.572
  4        0.003   0.002  -0.578  -0.572
  5        0.004   0.069   0.000   0.073
  6       -0.004  -0.069   0.000  -0.073
  7        0.004   0.069   0.000   0.073
  8       -0.004  -0.069   0.000  -0.073
  9        0.000   0.016   0.000   0.017
 10       -0.000  -0.016   0.000  -0.017
 11        0.000   0.020   0.000   0.020
 12       -0.000  -0.020   0.000  -0.020
 13        0.004   0.061   0.000   0.065
 14       -0.004  -0.061   0.000  -0.065
 15        0.004   0.059   0.000   0.063
 16       -0.004  -0.060   0.000  -0.064
 17       -0.004  -0.054   0.000  -0.058
 18        0.004   0.054   0.000   0.058
 19       -0.004  -0.052   0.000  -0.056
 20        0.004   0.052   0.000   0.056
 21        0.004   0.072   0.000   0.076
 22       -0.004  -0.072   0.000  -0.076
 23        0.004   0.072   0.000   0.075
 24       -0.004  -0.072   0.000  -0.075
 25        0.000   0.012   0.000   0.012
 26       -0.000  -0.012   0.000  -0.012
 27       -0.000   0.016   0.000   0.016
 28        0.000  -0.016   0.000  -0.016
 29       -0.000  -0.002   0.000  -0.002
 30        0.000   0.002   0.000   0.002
 31       -0.000  -0.002   0.000  -0.002
 32        0.000   0.002   0.000   0.002
 33       -0.000  -0.001   0.000  -0.001
 34        0.000   0.001   0.000   0.001
 35       -0.000  -0.001   0.000  -0.001
 36        0.000   0.001   0.000   0.001
 37       -0.000  -0.002   0.000  -0.003
 38        0.000   0.002   0.000   0.003
 39       -0.000  -0.002   0.000  -0.003
 40        0.000   0.002   0.000   0.003
 41       -0.000  -0.000   0.000  -0.000
 42        0.000   0.000   0.000   0.000
 43       -0.000  -0.000   0.000  -0.000
 44        0.000   0.000   0.000   0.000
 45        0.000  -0.000   0.000   0.000
 46       -0.000   0.000   0.000  -0.000
 47        0.000  -0.000   0.000   0.000
 48       -0.000   0.000   0.000  -0.000
 49        0.000  -0.000   0.000   0.000
 50       -0.000   0.000   0.000  -0.000
 51        0.000  -0.000   0.000   0.000
 52       -0.000   0.000   0.000  -0.000
 53        0.001  -0.000   0.000   0.001
 54       -0.001   0.000   0.000  -0.001
 55        0.000  -0.000   0.000   0.000
 56       -0.000   0.000   0.000  -0.000
 57        0.000   0.000   0.000   0.000
 58       -0.000  -0.000   0.000  -0.000
 59        0.000   0.000   0.000   0.000
 60       -0.000  -0.000   0.000  -0.000
[...]
 78        0.000  -0.000   0.000  -0.000
 79       -0.000   0.000   0.000   0.000
 80        0.000  -0.000   0.000  -0.000
 81        0.000   0.001   0.000   0.001
 82       -0.000  -0.001   0.000  -0.001
 83        0.000   0.001   0.000   0.001
 84       -0.000  -0.001   0.000  -0.001
 85       -0.000  -0.001   0.000  -0.001
 86        0.000   0.001   0.000   0.001
 87       -0.000  -0.001   0.000  -0.001
 88        0.000   0.001   0.000   0.001
 89        0.000   0.000   0.000   0.001
 90       -0.000  -0.000   0.000  -0.001
 91        0.000   0.000   0.000   0.000
 92       -0.000  -0.000   0.000  -0.001
tot       -0.000   0.000  -0.000   0.000