 vasp.5.4.1 24Jun15 (build Aug 03 2015 13:31:17) complex

 executed on      LinuxIFC_2015xe date 2021.12.03  08:58:38

 INCAR:
 POTCAR:    PAW_PBE Zn 06Sep2000
 POTCAR:   PAW_PBE O 08Apr2002
 POTCAR:   PAW_PBE C 08Apr2002
 POTCAR:   PAW_PBE H 15Jun2001
 POTCAR:   PAW_PBE N 08Apr2002

 POTCAR:    PAW_PBE Zn 06Sep2000
   VRHFIN =Zn: d10 p2

   TITEL  = PAW_PBE Zn 06Sep2000
   POMASS =   65.390; ZVAL   =   12.000    mass and valenz
   ENMAX  =  276.723; ENMIN  =  207.542 eV

 POTCAR:   PAW_PBE O 08Apr2002
   VRHFIN =O: s2p4

   TITEL  = PAW_PBE O 08Apr2002
   POMASS =   16.000; ZVAL   =    6.000    mass and valenz
   ENMAX  =  400.000; ENMIN  =  300.000 eV
   QCUT   =   -5.520; QGAM   =   11.041    optimization parameters

   Description
     l     E      TYP  RCUT    TYP  RCUT
     0   .000     23  1.200
     0  -.700     23  1.200
     1   .000     23  1.520
     1   .600     23  1.520
     2   .000      7  1.500

 POTCAR:   PAW_PBE C 08Apr2002
   VRHFIN =C: s2p2

[...]

 POTCAR:   PAW_PBE H 15Jun2001
   VRHFIN =H: ultrasoft test

   TITEL  = PAW_PBE H 15Jun2001
   POMASS =    1.000; ZVAL   =    1.000    mass and valenz
   ENMAX  =  250.000; ENMIN  =  200.000 eV
   QCUT   =   -5.749; QGAM   =   11.498    optimization parameters

[...]

 POTCAR:   PAW_PBE N 08Apr2002
   VRHFIN =N: s2p3

   TITEL  = PAW_PBE N 08Apr2002
   POMASS =   14.001; ZVAL   =    5.000    mass and valenz
   ENMAX  =  400.000; ENMIN  =  300.000 eV
   QCUT   =   -5.562; QGAM   =   11.124    optimization parameters

   Description
     l     E      TYP  RCUT    TYP  RCUT
     0   .000     23  1.200
     0   .000     23  1.200
     1   .000     23  1.500
     1   .700     23  1.500
     2   .000      7  1.500

  PAW_PBE Zn 06Sep2000                  :
 PAW_PBE O 08Apr2002                    :
 PAW_PBE C 08Apr2002                    :
 PAW_PBE H 15Jun2001                    :
 PAW_PBE N 08Apr2002                    :

 POSCAR: C3 H8 Mn N2 O6
  positions in direct lattice
  velocities in cartesian coordinates
 exchange correlation table for  LEXCH =        8
   RHO(1)=    0.500       N(1)  =     2000
   RHO(2)=  100.500       N(2)  =     4000

 ion  position               nearest neighbor table
   1  0.000  0.253  0.000-  10 2.10  13 2.11   5 2.12  18 2.13  28 2.16  21 2.17
   2  0.000  0.747  0.500-   9 2.10  14 2.11   6 2.12  17 2.13  27 2.16  22 2.17
   3  0.500  0.753  0.000-  12 2.10  15 2.11   7 2.12  20 2.13  26 2.16  23 2.17
   4  0.500  0.247  0.500-  11 2.10  16 2.11   8 2.12  19 2.13  25 2.16  24 2.17
   5  0.156  0.143  0.163-  33 1.26   1 2.12
   6  0.156  0.857  0.663-  34 1.26   2 2.12
   7  0.656  0.643  0.163-  35 1.26   3 2.12
   8  0.656  0.357  0.663-  36 1.26   4 2.12
   9  0.048  0.522  0.632-  37 1.27   2 2.10
  10  0.048  0.478  0.132-  38 1.27   1 2.10
  11  0.548  0.022  0.632-  39 1.27   4 2.10
  12  0.548  0.978  0.132-  40 1.27   3 2.10
  13  0.047  0.332  0.816-  37 1.27   1 2.11
  14  0.047  0.668  0.316-  38 1.27   2 2.11
  15  0.547  0.832  0.816-  39 1.27   3 2.11
  16  0.547  0.168  0.316-  40 1.27   4 2.11
  17  0.942  0.968  0.354-  41 1.26   2 2.13
  18  0.942  0.032  0.854-  42 1.26   1 2.13
  19  0.442  0.468  0.354-  43 1.26   4 2.13
  20  0.442  0.532  0.854-  44 1.26   3 2.13
  21  0.947  0.164  0.179-  41 1.28   1 2.17
  22  0.947  0.836  0.679-  42 1.28   2 2.17
  23  0.447  0.664  0.179-  43 1.28   3 2.17
  24  0.447  0.336  0.679-  44 1.28   4 2.17
  25  0.339  0.139  0.337-  33 1.28   4 2.16
  26  0.339  0.861  0.837-  34 1.28   3 2.16
  27  0.839  0.639  0.337-  35 1.28   2 2.16
  28  0.839  0.361  0.837-  36 1.28   1 2.16
  29  0.694  0.279  0.094-  53 1.09  57 1.09  49 1.09  93 1.48
  30  0.694  0.721  0.594-  54 1.09  58 1.09  50 1.09  94 1.48
  31  0.194  0.779  0.094-  59 1.09  55 1.09  51 1.09  95 1.48
  32  0.194  0.221  0.594-  60 1.09  56 1.09  52 1.09  96 1.48
  33  0.248  0.215  0.250-  61 1.11   5 1.26  25 1.28
  34  0.248  0.785  0.750-  62 1.11   6 1.26  26 1.28
  35  0.748  0.715  0.250-  63 1.11   7 1.26  27 1.28
  36  0.748  0.285  0.750-  64 1.11   8 1.26  28 1.28
  37  0.034  0.477  0.759-  65 1.11   9 1.27  13 1.27
  38  0.034  0.523  0.259-  66 1.11  10 1.27  14 1.27
  39  0.534  0.977  0.759-  67 1.11  11 1.27  15 1.27
  40  0.534  0.023  0.259-  68 1.11  12 1.27  16 1.27
  41  0.977  0.026  0.257-  69 1.10  17 1.26  21 1.28
  42  0.977  0.974  0.757-  70 1.10  18 1.26  22 1.28
  43  0.477  0.526  0.257-  71 1.10  19 1.26  23 1.28
  44  0.477  0.474  0.757-  72 1.10  20 1.26  24 1.28
  45  0.804  0.237  0.423-  81 1.09  89 1.09  85 1.09  93 1.48
  46  0.804  0.763  0.923-  82 1.09  90 1.09  86 1.09  94 1.48
  47  0.304  0.737  0.423-  83 1.09  91 1.09  87 1.09  95 1.48
  48  0.304  0.263  0.923-  84 1.09  92 1.09  88 1.09  96 1.48
  49  0.686  0.148  0.066-  29 1.09
  50  0.686  0.852  0.566-  30 1.09
  51  0.186  0.648  0.066-  31 1.09
  52  0.186  0.352  0.566-  32 1.09
  53  0.693  0.346  0.984-  29 1.09
  54  0.693  0.654  0.484-  30 1.09
  55  0.193  0.846  0.984-  31 1.09
  56  0.193  0.154  0.484-  32 1.09
  57  0.626  0.319  0.111-  29 1.09
  58  0.626  0.681  0.611-  30 1.09
  59  0.126  0.819  0.111-  31 1.09
  60  0.126  0.181  0.611-  32 1.09
[...]
  82  0.884  0.735  0.042-  46 1.09
  83  0.384  0.765  0.542-  47 1.09
  84  0.384  0.235  0.042-  48 1.09
  85  0.794  0.105  0.406-  45 1.09
  86  0.794  0.895  0.906-  46 1.09
  87  0.294  0.605  0.406-  47 1.09
  88  0.294  0.395  0.906-  48 1.09
  89  0.737  0.288  0.435-  45 1.09
  90  0.737  0.712  0.935-  46 1.09
  91  0.237  0.788  0.435-  47 1.09
  92  0.237  0.212  0.935-  48 1.09
  93  0.800  0.309  0.262-  77 1.06  73 1.06  29 1.48  45 1.48
  94  0.800  0.691  0.762-  78 1.06  74 1.06  30 1.48  46 1.48
  95  0.300  0.809  0.262-  79 1.06  75 1.06  31 1.48  47 1.48
  96  0.300  0.191  0.762-  80 1.06  76 1.06  32 1.48  48 1.48

  LATTYP: Found a simple monoclinic cell.
 ALAT       =    15.7770054054
 B/A-ratio  =     0.5224389703
 C/A-ratio  =     1.4139076663
 COS(beta)  =    -0.9544913423

  Lattice vectors:

 A1 = (  -5.2437598972,   0.0000000000, -14.8800833904)
 A2 = (   0.0000000000,  -8.2425224579,   0.0000000000)
 A3 = (   0.8021208644,   0.0000000000,  22.2928029430)

Analysis of symmetry for initial positions (statically):
 Subroutine PRICEL returns following result:

  LATTYP: Found a base centered monoclinic cell.
 ALAT       =    14.1271408093
 B/A-ratio  =     0.5834529838
 C/A-ratio  =     1.7676778796
 COS(beta)  =    -0.8246190605

[...]

   2 primitive cells build up your supercell.

 Routine SETGRP: Setting up the symmetry group for a
 simple monoclinic supercell.

 Subroutine GETGRP returns: Found  2 space group operations
 (whereof  1 operations were pure point group operations)
 out of a pool of  4 trial point group operations.

The static configuration has the point symmetry C_1 .
 The point group associated with its full space group is C_1h.

Analysis of symmetry for dynamics (positions and initial velocities):
 Subroutine PRICEL returns following result:

[...]

 Routine SETGRP: Setting up the symmetry group for a
 simple monoclinic supercell.

 Subroutine GETGRP returns: Found  2 space group operations
 (whereof  1 operations were pure point group operations)
 out of a pool of  4 trial point group operations.

The dynamic configuration has the point symmetry C_1 .
 The point group associated with its full space group is C_1h.

Analysis of magnetic symmetry:
 Subroutine PRICEL returns following result:

  LATTYP: Found a base centered monoclinic cell.
 ALAT       =    14.1271408093
 B/A-ratio  =     0.5834529838
 C/A-ratio  =     1.7676778796
 COS(beta)  =    -0.8246190605

  Lattice vectors:

 A1 = (   7.0635175630,   4.1212624678,   0.0273221371)
 A2 = (   7.0635175630,  -4.1212599901,   0.0273221371)
 A3 = ( -23.8124312191,  -0.0000049554,  -7.5220081011)

   2 primitive cells build up your supercell.

 Subroutine MAGSYM returns: Found  2 space group operations
 (whereof  1 operations were pure point group operations)
 out of a pool of  2 trial space group operations
 (whereof  1 operations were pure point group operations)
 and found also     2 'primitive' translations

The magnetic configuration has the point symmetry C_1 .
 The point group associated with its full space group is C_1h.

 KPOINTS: Automatic mesh

Automatic generation of k-mesh.
Space group operators:
 irot       det(A)        alpha          n_x          n_y          n_z        tau_x        tau_y        tau_z
    1     1.000000     0.000000     1.000000     0.000000     0.000000     0.000000     0.000000     0.000000
    2    -1.000000   180.000000     0.000000     1.000000     0.000000    -1.000000    -0.000000    -0.500000

 Subroutine IBZKPT returns following result:

 Found     12 irreducible k-points:

 Following reciprocal coordinates:
            Coordinates               Weight
  0.000000  0.125000  0.125000      4.000000
  0.333333  0.125000  0.125000      4.000000
 -0.333333  0.125000  0.125000      4.000000
  0.000000  0.375000  0.125000      4.000000
  0.333333  0.375000  0.125000      4.000000
 -0.333333  0.375000  0.125000      4.000000
  0.000000  0.125000  0.375000      4.000000
  0.333333  0.125000  0.375000      4.000000
 -0.333333  0.125000  0.375000      4.000000
  0.000000  0.375000  0.375000      4.000000
  0.333333  0.375000  0.375000      4.000000
 -0.333333  0.375000  0.375000      4.000000

 Following cartesian coordinates:
            Coordinates               Weight
 -0.000065  0.015165  0.016824      4.000000
  0.023476  0.015165  0.030929      4.000000
 -0.023606  0.015165  0.002718      4.000000
 -0.000065  0.045496  0.016824      4.000000
  0.023476  0.045496  0.030929      4.000000
 -0.023606  0.045496  0.002718      4.000000
 -0.000195  0.015165  0.050472      4.000000
  0.023346  0.015165  0.064577      4.000000
 -0.023736  0.015165  0.036366      4.000000
 -0.000195  0.045496  0.050472      4.000000
  0.023346  0.045496  0.064577      4.000000
 -0.023736  0.045496  0.036366      4.000000

 Subroutine IBZKPT_HF returns following result:

 Found     48 k-points in 1st BZ
 the following     48 k-points will be used (e.g. in the exchange kernel)
 Following reciprocal coordinates:   # in IRBZ
  0.000000  0.125000  0.125000    0.02083333   1 t-inv F
  0.333333  0.125000  0.125000    0.02083333   2 t-inv F
 -0.333333  0.125000  0.125000    0.02083333   3 t-inv F
  0.000000  0.375000  0.125000    0.02083333   4 t-inv F
  0.333333  0.375000  0.125000    0.02083333   5 t-inv F
 -0.333333  0.375000  0.125000    0.02083333   6 t-inv F
  0.000000  0.125000  0.375000    0.02083333   7 t-inv F
  0.333333  0.125000  0.375000    0.02083333   8 t-inv F
 -0.333333  0.125000  0.375000    0.02083333   9 t-inv F
  0.000000  0.375000  0.375000    0.02083333  10 t-inv F
  0.333333  0.375000  0.375000    0.02083333  11 t-inv F
 -0.333333  0.375000  0.375000    0.02083333  12 t-inv F
  0.000000 -0.125000  0.125000    0.02083333   1 t-inv F
  0.333333 -0.125000  0.125000    0.02083333   2 t-inv F
 -0.333333 -0.125000  0.125000    0.02083333   3 t-inv F
  0.000000 -0.375000  0.125000    0.02083333   4 t-inv F
  0.333333 -0.375000  0.125000    0.02083333   5 t-inv F
[...]
   0.120E+03 -.786E+02 -.136E+02   -.124E+03 0.115E+03 -.400E+01   0.469E+01 -.364E+02 0.176E+02   0.115E-03 -.359E-03 0.261E-03
   0.120E+03 0.786E+02 -.136E+02   -.124E+03 -.115E+03 -.400E+01   0.469E+01 0.364E+02 0.176E+02   0.120E-03 0.360E-03 0.256E-03
   0.741E+01 0.122E+03 0.388E+01   0.206E+02 -.144E+03 0.168E+02   -.280E+02 0.219E+02 -.207E+02   -.250E-03 0.231E-03 -.194E-03
   0.741E+01 -.122E+03 0.387E+01   0.206E+02 0.144E+03 0.168E+02   -.280E+02 -.219E+02 -.207E+02   -.253E-03 -.230E-03 -.190E-03
   0.742E+01 0.122E+03 0.388E+01   0.206E+02 -.144E+03 0.168E+02   -.280E+02 0.219E+02 -.207E+02   -.343E-03 0.172E-03 -.242E-03
   0.742E+01 -.122E+03 0.387E+01   0.206E+02 0.144E+03 0.168E+02   -.280E+02 -.219E+02 -.207E+02   -.341E-03 -.172E-03 -.246E-03
   0.372E+02 0.278E+02 0.650E+02   -.409E+02 -.287E+02 -.701E+02   0.367E+01 0.921E+00 0.507E+01   0.170E-03 0.358E-04 0.353E-03
   0.372E+02 -.278E+02 0.650E+02   -.409E+02 0.287E+02 -.701E+02   0.367E+01 -.921E+00 0.507E+01   0.171E-03 -.352E-04 0.354E-03
   0.372E+02 0.278E+02 0.650E+02   -.409E+02 -.287E+02 -.701E+02   0.367E+01 0.921E+00 0.507E+01   0.140E-03 -.111E-05 0.332E-03
   0.372E+02 -.278E+02 0.650E+02   -.409E+02 0.287E+02 -.701E+02   0.367E+01 -.921E+00 0.507E+01   0.140E-03 0.955E-06 0.332E-03
   -.789E+00 -.133E+03 -.127E+01   0.818E+00 0.140E+03 0.122E+01   -.274E-01 -.708E+01 0.472E-01   -.305E-04 -.216E-03 -.368E-04
   -.789E+00 0.133E+03 -.127E+01   0.818E+00 -.140E+03 0.122E+01   -.274E-01 0.708E+01 0.472E-01   -.326E-04 0.217E-03 -.342E-04
   -.791E+00 -.133E+03 -.127E+01   0.819E+00 0.140E+03 0.122E+01   -.274E-01 -.708E+01 0.472E-01   -.364E-04 -.258E-03 -.390E-04
   -.791E+00 0.133E+03 -.127E+01   0.819E+00 -.140E+03 0.122E+01   -.274E-01 0.708E+01 0.472E-01   -.348E-04 0.258E-03 -.411E-04
   0.358E+02 -.769E+02 -.621E+02   -.398E+02 0.815E+02 0.650E+02   0.399E+01 -.461E+01 -.290E+01   0.132E-03 -.152E-03 -.165E-03
   0.358E+02 0.769E+02 -.621E+02   -.398E+02 -.815E+02 0.650E+02   0.399E+01 0.461E+01 -.290E+01   0.134E-03 0.152E-03 -.169E-03
   0.358E+02 -.769E+02 -.621E+02   -.398E+02 0.815E+02 0.650E+02   0.399E+01 -.461E+01 -.290E+01   0.235E-03 -.163E-03 -.108E-03
   0.358E+02 0.769E+02 -.621E+02   -.398E+02 -.815E+02 0.650E+02   0.399E+01 0.461E+01 -.290E+01   0.233E-03 0.163E-03 -.105E-03
   -.907E+02 0.587E+02 0.193E+02   0.968E+02 -.627E+02 -.201E+02   -.613E+01 0.407E+01 0.852E+00   -.255E-03 0.137E-03 0.891E-05
   -.907E+02 -.587E+02 0.193E+02   0.968E+02 0.627E+02 -.201E+02   -.613E+01 -.407E+01 0.852E+00   -.258E-03 -.137E-03 0.119E-04
   -.907E+02 0.587E+02 0.193E+02   0.968E+02 -.627E+02 -.201E+02   -.613E+01 0.407E+01 0.852E+00   -.161E-03 0.125E-03 0.703E-04
   -.907E+02 -.587E+02 0.193E+02   0.968E+02 0.627E+02 -.201E+02   -.613E+01 -.407E+01 0.852E+00   -.158E-03 -.125E-03 0.671E-04
   0.432E+02 0.396E+02 -.555E+02   -.459E+02 -.420E+02 0.607E+02   0.276E+01 0.242E+01 -.523E+01   0.942E-04 0.141E-03 -.336E-03
   0.432E+02 -.396E+02 -.555E+02   -.459E+02 0.420E+02 0.607E+02   0.276E+01 -.242E+01 -.523E+01   0.983E-04 -.142E-03 -.340E-03
   0.432E+02 0.396E+02 -.555E+02   -.459E+02 -.420E+02 0.607E+02   0.276E+01 0.242E+01 -.523E+01   0.136E-03 0.102E-03 -.315E-03
   0.432E+02 -.396E+02 -.555E+02   -.459E+02 0.420E+02 0.607E+02   0.276E+01 -.242E+01 -.523E+01   0.132E-03 -.102E-03 -.312E-03
   -.226E+01 0.450E+02 0.114E+02   0.216E+01 -.506E+02 -.125E+02   0.110E+00 0.568E+01 0.115E+01   0.131E-04 0.122E-03 0.437E-04
   -.226E+01 -.450E+02 0.114E+02   0.216E+01 0.506E+02 -.125E+02   0.110E+00 -.568E+01 0.115E+01   0.132E-04 -.122E-03 0.440E-04
   -.226E+01 0.450E+02 0.114E+02   0.216E+01 -.506E+02 -.125E+02   0.110E+00 0.568E+01 0.115E+01   0.496E-05 0.115E-03 0.379E-04
   -.226E+01 -.450E+02 0.114E+02   0.216E+01 0.506E+02 -.125E+02   0.110E+00 -.568E+01 0.115E+01   0.505E-05 -.114E-03 0.380E-04
   -.142E+02 -.197E+02 0.277E+02   0.166E+02 0.226E+02 -.321E+02   -.242E+01 -.292E+01 0.442E+01   -.399E-04 -.598E-04 0.940E-04
   -.142E+02 0.197E+02 0.277E+02   0.166E+02 -.226E+02 -.321E+02   -.242E+01 0.292E+01 0.442E+01   -.403E-04 0.601E-04 0.949E-04
   -.142E+02 -.197E+02 0.277E+02   0.166E+02 0.226E+02 -.321E+02   -.242E+01 -.292E+01 0.442E+01   -.475E-04 -.665E-04 0.886E-04
   -.142E+02 0.197E+02 0.277E+02   0.166E+02 -.226E+02 -.321E+02   -.242E+01 0.292E+01 0.442E+01   -.470E-04 0.665E-04 0.881E-04
   0.416E+02 -.655E+01 -.377E+00   -.472E+02 0.831E+01 0.952E+00   0.558E+01 -.177E+01 -.561E+00   0.140E-03 -.369E-04 0.151E-04
   0.416E+02 0.655E+01 -.377E+00   -.472E+02 -.831E+01 0.952E+00   0.558E+01 0.177E+01 -.561E+00   0.140E-03 0.368E-04 0.148E-04
   0.416E+02 -.655E+01 -.377E+00   -.472E+02 0.831E+01 0.952E+00   0.558E+01 -.177E+01 -.561E+00   0.123E-03 -.445E-04 0.392E-05
   0.416E+02 0.655E+01 -.377E+00   -.472E+02 -.831E+01 0.952E+00   0.558E+01 0.177E+01 -.561E+00   0.122E-03 0.445E-04 0.468E-05
[...]
   -.171E+02 -.311E+01 -.251E+02   0.202E+02 0.428E+01 0.299E+02   -.313E+01 -.116E+01 -.484E+01   -.547E-04 -.249E-04 -.957E-04
   -.171E+02 0.311E+01 -.251E+02   0.202E+02 -.428E+01 0.299E+02   -.313E+01 0.116E+01 -.484E+01   -.556E-04 0.247E-04 -.949E-04
   0.126E+02 0.457E+02 0.125E+01   -.129E+02 -.515E+02 -.183E+01   0.304E+00 0.577E+01 0.571E+00   0.552E-05 0.135E-03 -.970E-05
   0.126E+02 -.457E+02 0.125E+01   -.129E+02 0.515E+02 -.183E+01   0.304E+00 -.577E+01 0.571E+00   0.659E-05 -.135E-03 -.108E-04
   0.126E+02 0.457E+02 0.125E+01   -.129E+02 -.515E+02 -.183E+01   0.304E+00 0.577E+01 0.571E+00   0.147E-04 0.127E-03 -.544E-05
   0.126E+02 -.457E+02 0.125E+01   -.129E+02 0.515E+02 -.183E+01   0.304E+00 -.577E+01 0.571E+00   0.136E-04 -.128E-03 -.471E-05
   0.352E+02 -.143E+02 -.492E+01   -.406E+02 0.164E+02 0.539E+01   0.542E+01 -.212E+01 -.484E+00   0.120E-03 -.378E-04 -.259E-04
   0.352E+02 0.143E+02 -.492E+01   -.406E+02 -.164E+02 0.539E+01   0.542E+01 0.212E+01 -.484E+00   0.121E-03 0.376E-04 -.268E-04
   0.352E+02 -.143E+02 -.492E+01   -.406E+02 0.164E+02 0.539E+01   0.542E+01 -.212E+01 -.484E+00   0.119E-03 -.453E-04 -.268E-04
   0.352E+02 0.143E+02 -.492E+01   -.406E+02 -.164E+02 0.539E+01   0.542E+01 0.212E+01 -.484E+00   0.118E-03 0.454E-04 -.260E-04
   -.171E+02 -.470E+01 0.128E+01   0.190E+02 0.594E+01 -.102E+01   -.190E+01 -.125E+01 -.257E+00   -.607E-03 -.330E-03 -.377E-04
   -.171E+02 0.470E+01 0.128E+01   0.190E+02 -.594E+01 -.102E+01   -.190E+01 0.125E+01 -.257E+00   -.605E-03 0.331E-03 -.388E-04
   -.171E+02 -.470E+01 0.128E+01   0.190E+02 0.594E+01 -.102E+01   -.190E+01 -.125E+01 -.257E+00   -.562E-03 -.379E-03 -.156E-04
   -.171E+02 0.470E+01 0.128E+01   0.190E+02 -.594E+01 -.102E+01   -.190E+01 0.125E+01 -.257E+00   -.564E-03 0.378E-03 -.138E-04
   -.303E+02 -.764E-01 -.444E+02   -.771E-12 -.320E-13 0.198E-12   0.303E+02 0.355E-14 0.444E+02   -.992E-03 0.222E-05 0.465E-03

 POSITION                                       TOTAL-FORCE (eV/Angst)
      0.00426      2.08670      0.00319         0.000002      0.000000     -0.000130
     -2.21656      6.15583      3.70955         0.000002     -0.000000     -0.000130
      7.06778      6.20796      0.03051         0.000002      0.000000     -0.000130
      4.84696      2.03457      3.73687         0.000002     -0.000000     -0.000130
      1.48503      1.17641      1.21353         0.000444     -0.001087      0.000677
     -0.73579      7.06611      4.91989         0.000444      0.001087      0.000677
      8.54855      5.29767      1.24085         0.000444     -0.001087      0.000677
      6.32773      2.94485      4.94721         0.000444      0.001087      0.000677
     -2.12707      4.30019      4.68547        -0.000324     -0.000480      0.004444
      0.09375      3.94234      0.97911        -0.000324      0.000480      0.004444
      4.93644      0.17892      4.71280        -0.000324     -0.000480      0.004444
      7.15726      8.06360      1.00644        -0.000324      0.000480      0.004444
     -2.96254      2.73272      6.05043         0.001280      0.005771     -0.002229
     -0.74172      5.50980      2.34407         0.001280     -0.005771     -0.002229
      4.10098      6.85398      6.07775         0.001280      0.005771     -0.002229
      6.32180      1.38854      2.37139         0.001280     -0.005771     -0.002229
     11.73486      7.98063      2.67832         0.001179      0.001744     -0.003322
      9.51404      0.26190      6.38468         0.001179     -0.001744     -0.003322
      4.67134      3.85937      2.65099         0.001179      0.001744     -0.003322
      2.45052      4.38316      6.35735         0.001179     -0.001744     -0.003322
     12.57903      1.35278      1.37928        -0.001490     -0.001227      0.001238
     10.35821      6.88974      5.08564        -0.001490      0.001227      0.001238
      5.51551      5.47404      1.35196        -0.001490     -0.001227      0.001238
      3.29469      2.76849      5.05832        -0.001490      0.001227      0.001238
      3.29299      1.14816      2.52024         0.000075     -0.000934     -0.000348
      1.07217      7.09436      6.22660         0.000075      0.000934     -0.000348
     10.35650      5.26942      2.54757         0.000075     -0.000934     -0.000348
      8.13568      2.97310      6.25393         0.000075      0.000934     -0.000348
      9.38665      2.29647      0.73455        -0.000277      0.000475      0.003552
      7.16583      5.94606      4.44091        -0.000277     -0.000475      0.003552
      2.32312      6.41773      0.70724        -0.000277      0.000475      0.003552
      0.10230      1.82479      4.41360        -0.000277     -0.000475      0.003552
      2.39097      1.76929      1.86498         0.000044     -0.003450      0.000198
      0.17015      6.47324      5.57134         0.000044      0.003450      0.000198
      9.45449      5.89054      1.89230         0.000044     -0.003450      0.000198
      7.23367      2.35198      5.59866         0.000044      0.003450      0.000198
     -2.88771      3.92772      5.63011         0.000925     -0.003849      0.000730
     -0.66689      4.31480      1.92375         0.000925      0.003849      0.000730
      4.17582      8.04899      5.65743         0.000925     -0.003849      0.000730
      6.39664      0.19353      1.95107         0.000925      0.003849      0.000730
     12.65742      0.21427      1.95790         0.002789     -0.003019     -0.000091
     10.43660      8.02825      5.66425         0.002789      0.003019     -0.000091
      5.59391      4.33553      1.93057         0.002789     -0.003019     -0.000091
      3.37309      3.90699      5.63693         0.002789      0.003019     -0.000091
      9.48088      1.95353      3.18024         0.003394     -0.000530     -0.001160
      7.26006      6.28899      6.88660         0.003394      0.000530     -0.001160
      2.41737      6.07479      3.15292         0.003394     -0.000530     -0.001160
      0.19655      2.16773      6.85928         0.003394      0.000530     -0.001160
      9.39333      1.22193      0.52909         0.000224     -0.003010     -0.002689
      7.17251      7.02059      4.23545         0.000224      0.003010     -0.002689
      2.32981      5.34319      0.50177         0.000224     -0.003010     -0.002689
      0.10899      2.89933      4.20813         0.000224      0.003010     -0.002689
      5.42023      2.84838      7.33329        -0.000180      0.001203     -0.002608
      7.64105      5.39414      3.62693        -0.000180     -0.001203     -0.002608
     -1.64328      6.96965      7.30596        -0.000180      0.001203     -0.002608
      0.57754      1.27288      3.59960        -0.000180     -0.001203     -0.002608
      8.35407      2.63113      0.85620        -0.001166     -0.001832     -0.001004
      6.13325      5.61139      4.56256        -0.001166      0.001832     -0.001004
      1.29056      6.75239      0.82888        -0.001166     -0.001832     -0.001004
     -0.93026      1.49013      4.53524        -0.001166      0.001832     -0.001004
[...]
     12.29775      6.05843      0.36066        -0.000306      0.001964      0.001738
      3.01341      6.30535      4.03970        -0.000306     -0.001964      0.001738
      5.23422      1.93717      0.33334        -0.000306      0.001964      0.001738
      9.41947      0.86898      3.05352         0.000002     -0.003551     -0.000141
      7.19865      7.37354      6.75988         0.000002      0.003551     -0.000141
      2.35595      4.99025      3.02620         0.000002     -0.003551     -0.000141
      0.13513      3.25227      6.73256         0.000002      0.003551     -0.000141
      8.47423      2.37256      3.26274        -0.002885     -0.001525      0.000842
      6.25342      5.86996      6.96910        -0.002885      0.001525      0.000842
      1.41071      6.49383      3.23542        -0.002885     -0.001525      0.000842
     -0.81011      1.74870      6.94178        -0.002885      0.001525      0.000842
     10.13775      2.54333      1.98888         0.002524      0.000993     -0.000763
      7.91693      5.69919      5.69524         0.002524     -0.000993     -0.000763
      3.07423      6.66459      1.96155         0.002524      0.000993     -0.000763
      0.85341      1.57793      5.66791         0.002524     -0.000993     -0.000763
    total drift:                               -0.003994     -0.076401     -0.006836

  FREE ENERGIE OF THE ION-ELECTRON SYSTEM (eV)
  free  energy   TOTEN  =      -559.73830085 eV

  energy  without entropy=     -559.73830085  energy(sigma->0) =     -559.73830085

 total charge

[...]

 magnetization (x)

# of ion     s       p       d       tot
  1        0.000   0.000  -0.000   0.000
  2        0.000   0.000   0.000   0.000
  3        0.000   0.000  -0.000  -0.000
  4        0.000   0.000  -0.000   0.000
  5        0.000  -0.000   0.000  -0.000
  6        0.000  -0.000   0.000  -0.000
  7        0.000  -0.000   0.000  -0.000
  8        0.000  -0.000   0.000  -0.000
  9       -0.000  -0.000   0.000  -0.000
 10       -0.000  -0.000   0.000  -0.000
 11       -0.000  -0.000   0.000  -0.000
 12        0.000  -0.000   0.000  -0.000
 13        0.000   0.000   0.000   0.000
 14        0.000   0.000   0.000   0.000
 15        0.000   0.000   0.000   0.000
 16        0.000   0.000   0.000   0.000
 17        0.000  -0.000   0.000  -0.000
 18        0.000  -0.000   0.000  -0.000
 19        0.000  -0.000   0.000  -0.000
 20        0.000  -0.000   0.000  -0.000
 21        0.000   0.000   0.000   0.000
 22        0.000   0.000   0.000   0.000
 23        0.000   0.000   0.000   0.000
 24        0.000   0.000   0.000   0.000
 25       -0.000   0.000   0.000   0.000
 26       -0.000   0.000   0.000   0.000
 27        0.000   0.000   0.000   0.000
 28       -0.000   0.000   0.000   0.000
 29        0.000  -0.000   0.000  -0.000
 30       -0.000  -0.000   0.000  -0.000
 31        0.000  -0.000   0.000  -0.000
 32       -0.000  -0.000   0.000  -0.000
 33       -0.000  -0.000   0.000  -0.000
 34       -0.000  -0.000   0.000  -0.000
 35       -0.000  -0.000   0.000  -0.000
 36       -0.000  -0.000   0.000  -0.000
 37        0.000   0.000   0.000   0.000
 38        0.000   0.000   0.000   0.000
 39        0.000   0.000   0.000   0.000
 40        0.000   0.000   0.000   0.000
 41       -0.000  -0.000   0.000  -0.000
 42       -0.000  -0.000   0.000  -0.000
 43       -0.000  -0.000   0.000  -0.000
 44       -0.000  -0.000   0.000  -0.000
 45        0.000   0.000   0.000   0.000
 46        0.000   0.000   0.000   0.000
 47        0.000   0.000   0.000   0.000
 48        0.000   0.000   0.000   0.000
 49        0.000  -0.000   0.000   0.000
 50        0.000  -0.000   0.000   0.000
 51        0.000  -0.000   0.000   0.000
 52        0.000  -0.000   0.000   0.000
 53        0.000  -0.000   0.000   0.000
 54        0.000  -0.000   0.000   0.000
 55        0.000  -0.000   0.000   0.000
 56        0.000  -0.000   0.000   0.000
 57        0.000  -0.000   0.000   0.000
 58        0.000  -0.000   0.000   0.000
 59        0.000  -0.000   0.000   0.000
 60        0.000  -0.000   0.000   0.000
[...]
 82        0.000   0.000   0.000   0.000
 83        0.000   0.000   0.000   0.000
 84        0.000   0.000   0.000   0.000
 85        0.000   0.000   0.000   0.000
 86        0.000   0.000   0.000   0.000
 87        0.000   0.000   0.000   0.000
 88        0.000   0.000   0.000   0.000
 89       -0.000   0.000   0.000  -0.000
 90       -0.000   0.000   0.000  -0.000
 91       -0.000   0.000   0.000  -0.000
 92       -0.000   0.000   0.000  -0.000
 93        0.000  -0.000   0.000  -0.000
 94        0.000  -0.000   0.000  -0.000
 95        0.000  -0.000   0.000  -0.000
 96        0.000  -0.000   0.000  -0.000
tot        0.000  -0.000  -0.000   0.000