 vasp.6.2.1 16May21 (build Oct 06 2021 15:23:54) complex

 executed on     Narwhal-SCI@Navy date 2021.10.18  14:46:35

 INCAR:
   IVDW = 11           (DFT-D3 method of method with no damping)
   ISPIN = 2 (Spin polarised DFT)
   MAGMOM = 10 -10 -10 10 84*0.0d0
   ISTART = 1            (Read existing wavefunction
   ICHARG = 11         (Non-self-consistent: GGA/LDA band structures)
   LORBIT = 11
   LASPH = T
   GGA_COMPAT = .FALSE.
   LREAL = .FALSE.       (Projection operators: automatic)
   ENCUT = 708
   ENAUG = 708
   PREC = Accurate     (Precision level)
   LMAXMIX = 4
   ADDGRID = .TRUE.        (Increase grid
   LPLANE = .TRUE.      (Real space distribution
   NWRITE = 2           (Medium-level output)
   KPAR = 2           (Divides k-grid into separate groups)
   NSW = 00          (number of ionic steps)
   ISMEAR = 0            (gaussian smearing method )
   SIGMA = 0.05         (please check the width of the smearing)
   IBRION = -1           (Algorithm: 0-MD
   ISIF = 3            (optimize atomic coordinates and lattice parameters)
   EDIFFG = -0.005       (Ionic convergence
   EDIFF = 1.0d-10
   DAU = .TRUE.
   LDAUTYPE = 2
   LDAUL = 2 -1 -1       -1  -1
   LDAUU = 4.6 0.00 0.00  0.00 0.0
   LDAUJ = 0.00 0.00 0.00 0.00 0.0
   LDAUPRINT = 2
   LCALCPOL = T

 POTCAR:    PAW_PBE Co 02Aug2007
 POTCAR:    PAW_PBE N 08Apr2002
 POTCAR:    PAW_PBE C 08Apr2002
 POTCAR:    PAW_PBE H 15Jun2001
 POTCAR:    PAW_PBE O 08Apr2002
 POTCAR:    PAW_PBE Co 02Aug2007
   VRHFIN =Co: d8 s1

   TITEL  = PAW_PBE Co 02Aug2007
   POMASS =   58.933; ZVAL   =    9.000    mass and valenz
   ENMAX  =  267.968; ENMIN  =  200.976 eV

   TITEL  = PAW_PBE N 08Apr2002
   POMASS =   14.001; ZVAL   =    5.000    mass and valenz
   ENMAX  =  400.000; ENMIN  =  300.000 eV

[...]

   TITEL  = PAW_PBE H 15Jun2001
   POMASS =    1.000; ZVAL   =    1.000    mass and valenz
   ENMAX  =  250.000; ENMIN  =  200.000 eV

   TITEL  = PAW_PBE O 08Apr2002
   POMASS =   16.000; ZVAL   =    6.000    mass and valenz
   ENMAX  =  400.000; ENMIN  =  300.000 eV

  PAW_PBE Co 02Aug2007                  :
  PAW_PBE N 08Apr2002                   :
  PAW_PBE C 08Apr2002                   :
  PAW_PBE H 15Jun2001                   :
  PAW_PBE O 08Apr2002                   :

 POSCAR: crystal
  positions in direct lattice
  velocities in cartesian coordinates
 exchange correlation table for  LEXCH =        8
   RHO(1)=    0.500       N(1)  =     2000
   RHO(2)=  100.500       N(2)  =     4000

 ion  position               nearest neighbor table
   1  0.500  0.500  0.500-  61 2.09  65 2.09  77 2.10  81 2.10  70 2.13  74 2.13
   2  0.000  0.500  0.000-  62 2.09  66 2.09  78 2.10  82 2.10  69 2.13  73 2.13
   3  0.500  0.000  0.500-  63 2.09  67 2.09  79 2.10  83 2.10  72 2.13  76 2.13
   4  0.000  0.000  0.000-  64 2.09  68 2.09  80 2.10  84 2.10  71 2.13  75 2.13
   5  0.584  0.750  0.031-  41 1.03  31 1.05  25 1.05   9 1.48
   6  0.916  0.250  0.531-  42 1.03  32 1.05  26 1.05  10 1.48
   7  0.416  0.250  0.969-  43 1.03  29 1.05  27 1.05  11 1.48
   8  0.084  0.750  0.469-  44 1.03  30 1.05  28 1.05  12 1.48
   9  0.411  0.750  0.973-  45 1.09  39 1.09  33 1.09   5 1.48
  10  0.089  0.250  0.473-  46 1.09  40 1.09  34 1.09   6 1.48
  11  0.589  0.250  0.027-  47 1.09  37 1.09  35 1.09   7 1.48
  12  0.911  0.750  0.527-  48 1.09  38 1.09  36 1.09   8 1.48
  13  0.507  0.750  0.443-  57 1.10  77 1.27  83 1.27
  14  0.993  0.250  0.943-  58 1.10  78 1.27  84 1.27
  15  0.493  0.250  0.557-  59 1.10  79 1.27  81 1.27
  16  0.007  0.750  0.057-  60 1.10  80 1.27  82 1.27
  17  0.285  0.470  0.219-  49 1.10  61 1.26  69 1.28
  18  0.215  0.530  0.719-  50 1.10  62 1.26  70 1.28
  19  0.715  0.970  0.781-  51 1.10  63 1.26  71 1.28
  20  0.785  0.030  0.281-  52 1.10  64 1.26  72 1.28
  21  0.715  0.530  0.781-  53 1.10  65 1.26  73 1.28
  22  0.785  0.470  0.281-  54 1.10  66 1.26  74 1.28
  23  0.285  0.030  0.219-  55 1.10  67 1.26  75 1.28
  24  0.215  0.970  0.719-  56 1.10  68 1.26  76 1.28
  25  0.648  0.677  0.990-   5 1.05
  26  0.852  0.323  0.490-   6 1.05
  27  0.352  0.177  0.010-   7 1.05
  28  0.148  0.823  0.510-   8 1.05
  29  0.352  0.323  0.010-   7 1.05
  30  0.148  0.677  0.510-   8 1.05
  31  0.648  0.823  0.990-   5 1.05
  32  0.852  0.177  0.490-   6 1.05
  33  0.349  0.673  0.018-   9 1.09
  34  0.151  0.327  0.518-  10 1.09
  35  0.651  0.173  0.982-  11 1.09
  36  0.849  0.827  0.482-  12 1.09
  37  0.651  0.327  0.982-  11 1.09
  38  0.849  0.673  0.482-  12 1.09
  39  0.349  0.827  0.018-   9 1.09
  40  0.151  0.173  0.518-  10 1.09
  41  0.585  0.750  0.157-   5 1.03
  42  0.915  0.250  0.657-   6 1.03
  43  0.415  0.250  0.843-   7 1.03
  44  0.085  0.750  0.343-   8 1.03
  45  0.412  0.750  0.842-   9 1.09
  46  0.088  0.250  0.342-  10 1.09
  47  0.588  0.250  0.158-  11 1.09
  48  0.912  0.750  0.658-  12 1.09
  49  0.214  0.537  0.282-  17 1.10
  50  0.286  0.463  0.782-  18 1.10
  51  0.786  0.037  0.718-  19 1.10
  52  0.714  0.963  0.218-  20 1.10
  53  0.786  0.463  0.718-  21 1.10
  54  0.714  0.537  0.218-  22 1.10
  55  0.214  0.963  0.282-  23 1.10
  56  0.286  0.037  0.782-  24 1.10
  57  0.481  0.750  0.574-  13 1.10
  58  0.019  0.250  0.074-  14 1.10
  59  0.519  0.250  0.426-  15 1.10
  60  0.981  0.750  0.926-  16 1.10
[...]
  70  0.265  0.559  0.578-  18 1.28   1 2.13
  71  0.765  0.941  0.922-  19 1.28   4 2.13
  72  0.735  0.059  0.422-  20 1.28   3 2.13
  73  0.765  0.559  0.922-  21 1.28   2 2.13
  74  0.735  0.441  0.422-  22 1.28   1 2.13
  75  0.235  0.059  0.078-  23 1.28   4 2.13
  76  0.265  0.941  0.578-  24 1.28   3 2.13
  77  0.522  0.654  0.371-  13 1.27   1 2.10
  78  0.978  0.346  0.871-  14 1.27   2 2.10
  79  0.478  0.154  0.629-  15 1.27   3 2.10
  80  0.022  0.846  0.129-  16 1.27   4 2.10
  81  0.478  0.346  0.629-  15 1.27   1 2.10
  82  0.022  0.654  0.129-  16 1.27   2 2.10
  83  0.522  0.846  0.371-  13 1.27   3 2.10
  84  0.978  0.154  0.871-  14 1.27   4 2.10

  LATTYP: Found a simple orthorhombic cell.
 ALAT       =     8.1198788468
 B/A-ratio  =     1.0192334743
 C/A-ratio  =     1.4340104397

  Lattice vectors:

 A1 = (  -8.1198788468,   0.0000000000,   0.0000000000)
 A2 = (   0.0000000000,   0.0000000000,   8.2760523279)
 A3 = (   0.0000000000,  11.6439910356,   0.0000000000)

Analysis of symmetry for initial positions (statically):
 Subroutine PRICEL returns:
 Original cell was already a primitive cell.

 Routine SETGRP: Setting up the symmetry group for a
 simple orthorhombic supercell.

 Subroutine GETGRP returns: Found  8 space group operations
 (whereof  2 operations were pure point group operations)
 out of a pool of  8 trial point group operations.

The static configuration has the point symmetry S_2 .
 The point group associated with its full space group is D_2h.

Analysis of symmetry for dynamics (positions and initial velocities):
 Subroutine PRICEL returns:
 Original cell was already a primitive cell.

[...]

The dynamic configuration has the point symmetry S_2 .
 The point group associated with its full space group is D_2h.

Analysis of structural, dynamic, and magnetic symmetry:
 Subroutine PRICEL returns:
 Original cell was already a primitive cell.

 Routine SETGRP: Setting up the symmetry group for a
 simple orthorhombic supercell.

 Subroutine GETGRP returns: Found  8 space group operations
 (whereof  2 operations were pure point group operations)
 out of a pool of  8 trial point group operations.

The overall configuration has the point symmetry S_2 .
 The point group associated with its full space group is D_2h.

 Subroutine INISYM returns: Found  8 space group operations
 (whereof  2 operations are pure point group operations),
 and found     1 'primitive' translations

                                     Primitive cell

  volume of cell :     782.4825

  direct lattice vectors                    reciprocal lattice vectors
     8.119878847  0.000000000  0.000000000     0.123154547  0.000000000  0.000000000
     0.000000000 11.643991036  0.000000000     0.000000000  0.085881207  0.000000000
     0.000000000  0.000000000  8.276052328     0.000000000  0.000000000  0.120830555

  length of vectors
     8.119878847 11.643991036  8.276052328     0.123154547  0.085881207  0.120830555

  position of ions in fractional coordinates (direct lattice)
     0.500000000  0.500000000  0.500000000
     0.000000000  0.500000000  0.000000000
     0.500000000  0.000000000  0.500000000
     0.000000000  0.000000000  0.000000000
     0.584438972  0.750000000  0.031482648
     0.915561028  0.250000000  0.531482648
     0.415561028  0.250000000  0.968517352
     0.084438972  0.750000000  0.468517352
     0.411490661  0.750000000  0.973443532
     0.088509339  0.250000000  0.473443532
     0.588509339  0.250000000  0.026556468
     0.911490661  0.750000000  0.526556468
     0.506633059  0.750000000  0.443466908
     0.993366941  0.250000000  0.943466908
     0.493366941  0.250000000  0.556533092
     0.006633059  0.750000000  0.056533092
     0.284628529  0.470145621  0.219257769
     0.215371471  0.529854379  0.719257769
     0.715371471  0.970145621  0.780742231
     0.784628529  0.029854379  0.280742231
     0.715371471  0.529854379  0.780742231
     0.784628529  0.470145621  0.280742231
     0.284628529  0.029854379  0.219257769
     0.215371471  0.970145621  0.719257769
     0.648097717  0.676809431  0.990299162
     0.851902283  0.323190569  0.490299162
     0.351902283  0.176809431  0.009700838
     0.148097717  0.823190569  0.509700838
     0.351902283  0.323190569  0.009700838
     0.148097717  0.676809431  0.509700838
     0.648097717  0.823190569  0.990299162
     0.851902283  0.176809431  0.490299162
     0.349151843  0.673060352  0.018172067
     0.150848157  0.326939648  0.518172067
     0.650848157  0.173060352  0.981827933
     0.849151843  0.826939648  0.481827933
     0.650848157  0.326939648  0.981827933
     0.849151843  0.673060352  0.481827933
     0.349151843  0.826939648  0.018172067
     0.150848157  0.173060352  0.518172067
     0.584948504  0.750000000  0.156528964
     0.915051496  0.250000000  0.656528964
     0.415051496  0.250000000  0.843471036
     0.084948504  0.750000000  0.343471036
     0.411578042  0.750000000  0.841581898
     0.088421958  0.250000000  0.341581898
     0.588421958  0.250000000  0.158418102
     0.911578042  0.750000000  0.658418102
     0.213532560  0.537216464  0.282412528
     0.286467440  0.462783536  0.782412528
     0.786467440  0.037216464  0.717587472
     0.713532560  0.962783536  0.217587472
     0.786467440  0.462783536  0.717587472
     0.713532560  0.537216464  0.217587472
     0.213532560  0.962783536  0.282412528
     0.286467440  0.037216464  0.782412528
     0.480501257  0.750000000  0.574428121
     0.019498743  0.250000000  0.074428121
     0.519498743  0.250000000  0.425571879
     0.980501257  0.750000000  0.925571879
[...]
     0.264850036  0.559292154  0.578455342
     0.764850036  0.940707846  0.921544658
     0.735149964  0.059292154  0.421544658
     0.764850036  0.559292154  0.921544658
     0.735149964  0.440707846  0.421544658
     0.235149964  0.059292154  0.078455342
[...]
  215        set_dd_paw                            0.453791                            1   3
  216          set_rsgf_all                          0.002555                          1   4
  217          m_sumb_d                              0.443079                          8   4
  218        strkin                                0.106819                            1   3
  219          m_sumb_d                              0.001057                          1   4
  220        strelo                                0.010249                            1   3
  221          m_sumb_d                              0.000424                          2   4
  222        strenl                              227.876549                            1   3
  223          spher                                37.985232                         19   4
  224          phase                                34.127801                        450   4
  225          proj1                               148.575679                       3600   4
  226            crexp_mul_wave                       73.100530                   302400   5
  227          m_sumb_d                              6.901748                          1   4
  228        fft3d_mpi                             0.065484                           22   3
  229          fftbas_plan_mpi                       0.064217                         22   4
  230            dfftw_execute                         0.021757                       66   5
  231            map_forward                           0.018574                       20   5
  232              map_gather                            0.001587                     10   6
  233              m_alltoallv_z                         0.014159                     10   6
  234              map_scatter                           0.002799                     10   6
  235            map_backward                          0.021037                       24   5
  236              map_gather                            0.004970                     12   6
  237              m_alltoallv_z                         0.014983                     12   6
  238              map_scatter                           0.001050                     12   6
  239        m_sumb_d                              0.001215                            5   3
  240        forhar                                0.026742                            2   3
  241          m_sumb_d                              0.002144                          2   4
  242        strehar                               0.004389                            1   3
  243          m_sumb_d                              0.000370                          1   4
  244        chggra                                0.015503                            1   3
  245          fft3d_mpi                             0.009945                          3   4
  246            fftbas_plan_mpi                       0.009799                        3   5
  247              dfftw_execute                         0.003231                      9   6
  248              map_backward                          0.001515                      2   6
  249                map_gather                            0.000359                    1   7
  250                m_alltoallv_z                         0.001100                    1   7
  251                map_scatter                           0.000056                    1   7
  252              map_forward                           0.004534                      4   6
  253                map_gather                            0.000511                    2   7
  254                m_alltoallv_z                         0.003417                    2   7
  255                map_scatter                           0.000597                    2   7
  256          m_sumb_d                              0.000012                          2   4
  257          pothar                                0.000465                          1   4
  258            m_sumb_d                              0.000320                        1   5
  259        m_bcast_d                             0.009195                            2   3
  260      potlok                                0.198755                              1   2
  261        fft3d_mpi                             0.095534                           26   3
  262          fftbas_plan_mpi                       0.088499                         26   4
  263            dfftw_execute                         0.033062                       78   5
  264            map_forward                           0.030624                       28   5
  265              map_gather                            0.002512                     16   6
  266              m_alltoallv_z                         0.021494                     16   6
  267              map_scatter                           0.006557                     16   6
  268            map_backward                          0.021243                       24   5
  269              map_gather                            0.005739                     12   6
  270              m_alltoallv_z                         0.014493                     12   6
  271              map_scatter                           0.000980                     12   6
  272        m_sumb_d                              0.000056                            5   3
  273        pothar                                0.000824                            1   3
  274          m_sumb_d                              0.000416                          1   4
  275        m_bcast_d                             0.021342                            2   3
  276      potlok_metagga                        0.000002                              1   2
  277      set_dd_magatom                        0.000377                              1   2
  278      set_dd_paw                            0.579092                              1   2
  279        set_rsgf_all                          0.006668                            1   3
  280        m_sumb_d                              0.565129                            8   3
  281      densta                                0.042255                              1   2
  282        m_sumb_d                              0.019071                           13   3

 Flat profile

 fft3d                                 960.904244       62434
 calc_polarization                     536.335518           1
 gemm                                  452.993840     1061340
 proj1                                 435.286240       13035
 eddav                                 360.086465           9
 m_alltoall_d                          347.581363      206717
 work_mul_crexp                        322.434800     1061340
 crexp_mul_wave                        285.879902     1094940
 fftwav                                265.305062       31367
 vhamil                                171.255589       12635
 total_time                            134.197067           1
 m_bcast_z                             128.874574      105450
 orth1                                 117.444689       38305
 phase                                 114.658936        1451
 m_sumb_d                               97.029049       96841
 redis_pw                               45.631288       64993
 fornl                                  40.340170           1
 spher                                  40.253528          20
 fftext_mpi                             22.989878       31067
 eccp                                   20.367264        3600
 setdij_                                18.302841          29
 pdssyex_zheevx                         16.743283         900
 sphpro_fast                            16.675938           2
 lincom                                 13.677842        1000
 w1_copy                                 7.645105       42705
 hamiltmu                                5.117808       12635
 kinhamil                                3.165174       12635
 elmin                                   3.020791           1
 apply_precond                           2.675063        9035
 vnlac0                                  2.472561       12635
 overl1                                  2.118429       12635
 force_and_stress                        1.729187           1
 m_alltoallv_z                           1.507015         210
 pw_charge                               1.327036         300
 map_scatter                             1.172336         210
 overl                                   0.952296       21770
 augmentation_charge                     0.896523           1
 dfftw_execute                           0.750717         612
 setup_precond                           0.510334        3600
 redis_proj                              0.481932       74128
 m_bcast_d                               0.459811       25571
 map_gather                              0.394872         210
 fft3d_mpi                               0.375281       31271
 choleski                                0.304099         100
 strenl                                  0.286088           1
 newband                                 0.275841       13535
 fftwav_mpi                              0.197936       31367
 potlok                                  0.170671           2
 set_charge                              0.112242           1
 strkin                                  0.105762           1
 densta                                  0.102780          10
 fftbas_plan_mpi                         0.096446         204
 orthch                                  0.079480           1
 truncate_high_frequency_w1              0.058483       16235
 soft_charge                             0.041897           1
 w1_projall                              0.035205        9035
 set_dd_paw                              0.032514           3
 fewald                                  0.027745           1
 stufak                                  0.026283           2
 forhar                                  0.024598           2
 forloc                                  0.016502           1
 strelo                                  0.009825           1
 set_rsgf_all                            0.009648           3
 proj                                    0.006468          50
 inisym                                  0.005905           1
 chggra                                  0.005081           1
 map_forward                             0.004623         206
 strehar                                 0.004019           1
 depsum                                  0.003556           1
 map_backward                            0.001751         202
 fordep                                  0.001506           1
 pothar                                  0.001020           3
 set_dd_magatom                          0.000950           3
 fft_gq                                  0.000462           1
 rsp                                     0.000422           1
 vectorpot                               0.000416           2
 potlok_metagga                          0.000268           2
 rcp                                     0.000114           1
 posmap                                  0.000049           2
 crpa_reader                             0.000027           1
 FERMAT_RAZOR                            0.000019           1
 rotate_active_occupied_orbital          0.000001           1
 redis_pw_over_bands                     0.000000           1
  summed up times    5004.07234311104

 Accumulative profile

 total_time                           5004.072343           1
 elmin                                2945.689691           1
 eddav                                2940.638657           9
 calc_polarization                    1438.430532           1
 hamiltmu                             1148.033056       12635
 fft3d                                 960.904244       62434
 vnlac0                                777.901201       12635
 fftwav_mpi                            768.073884       31367
 fftwav                                767.875948       31367
 proj1                                 721.166141       13035
 w1_projall                            554.416954        9035
 fftext_mpi                            481.536192       31067
 fft3d_mpi                             462.636399       31271
 gemm                                  452.993840     1061340
 m_alltoall_d                          347.581363      206717
 work_mul_crexp                        322.434800     1061340
 force_and_stress                      305.816382           1
 crexp_mul_wave                        285.879902     1094940
 redis_pw                              256.192316       64993
 strenl                                227.876549           1
 kinhamil                              191.640030       12635
 vhamil                                171.255589       12635
 redis_proj                            137.502267       74128
 m_bcast_z                             128.874574      105450
 newband                               119.036678       13535
 orth1                                 117.444689       38305
 phase                                 114.658936        1451
 m_sumb_d                               97.029049       96841
 fornl                                  44.773779           1
 spher                                  40.253528          20
 setdij_                                22.149063          29
 eccp                                   20.367264        3600
 proj                                   18.215181          50
 sphpro_fast                            17.417856           2
 pdssyex_zheevx                         16.743302         900
 lincom                                 13.677842        1000
 set_charge                             11.352690           1
 soft_charge                            10.172387           1
 w1_copy                                 7.645105       42705
 orthch                                  4.499570           1
 fordep                                  4.436559           1
 fftbas_plan_mpi                         3.927760         204
 apply_precond                           2.675063        9035
 overl1                                  2.118429       12635
 map_forward                             2.080528         206
 m_alltoallv_z                           1.507015         210
 set_dd_paw                              1.447645           3
 pw_charge                               1.327036         300
 map_scatter                             1.172336         210
 augmentation_charge                     1.042146           1
 map_backward                            1.000068         202
 overl                                   0.952296       21770
 dfftw_execute                           0.750717         612
 setup_precond                           0.510334        3600
 m_bcast_d                               0.459811       25571
 potlok                                  0.430172           2
 map_gather                              0.394872         210
 choleski                                0.304099         100
 densta                                  0.141389          10
 strkin                                  0.106819           1
 truncate_high_frequency_w1              0.058483       16235
 fft_gq                                  0.040229           1
 fewald                                  0.028740           1
 forhar                                  0.026742           2
 stufak                                  0.026283           2
 forloc                                  0.017738           1
 chggra                                  0.015503           1
 strelo                                  0.010249           1
 set_rsgf_all                            0.009648           3
 inisym                                  0.005954           1
 depsum                                  0.005791           1
 strehar                                 0.004389           1
 pothar                                  0.002106           3
 set_dd_magatom                          0.000950           3
 rsp                                     0.000422           1
 vectorpot                               0.000416           2
 potlok_metagga                          0.000268           2
 rcp                                     0.000114           1
 posmap                                  0.000049           2
 crpa_reader                             0.000027           1
 FERMAT_RAZOR                            0.000019           1
 rotate_active_occupied_orbital          0.000001           1
 redis_pw_over_bands                     0.000000           1

Profiling took   1.476808  0.805227  0.009851  0.004377 seconds
Profiling took   2.202965 seconds