 vasp.6.2.0 18Jan21 (build Jun 21 2021 16:53:19) complex

 executed on    LinuxIFC_2020xeU1 date 2021.09.20  13:18:55

 INCAR:
   IVDW = 11           (DFT-D3 method of method with no damping)
   ISPIN = 1 (Spin un-polarised DFT)
   ISTART = 1             (Read existing wavefunction
   ICHARG = 11         (Non-self-consistent: GGA/LDA band structures)
   LORBIT = 11
   LASPH = T
   GGA_COMPAT = .FALSE.
   LREAL = .FALSE.       (Projection operators: automatic)
   ENCUT = 708
   ENAUG = 708
   PREC = Accurate     (Precision level)
   LMAXMIX = 4
   LWAVE = .TRUE.        (Write WAVECAR or not)
   LCHARG = .TRUE.        (Write CHGCAR or not)
   ADDGRID = .TRUE.        (Increase grid
   LPLANE = .TRUE.      (Real space distribution
   NWRITE = 2           (Medium-level output)
   KPAR = 2           (Divides k-grid into separate groups)
   NSW = 0          (number of ionic steps)
   ISMEAR = 0            (gaussian smearing method )
   SIGMA = 0.05         (please check the width of the smearing)
   IBRION = -1            (Algorithm: 0-MD
   EDIFF = 1.0d-10
   KSPACING = 0.2
   LCALCPOL = T

 POTCAR:    PAW_PBE Zn 06Sep2000
 POTCAR:    PAW_PBE O 08Apr2002
 POTCAR:    PAW_PBE C 08Apr2002
 POTCAR:    PAW_PBE H 15Jun2001
 POTCAR:    PAW_PBE N 08Apr2002
|           W    W    AA    RRRRR   N    N  II  N    N   GGGG   !!!           |
|           W    W   A  A   R    R  NN   N  II  NN   N  G    G  !!!           |
|           W    W  A    A  R    R  N N  N  II  N N  N  G       !!!           |
|           W WW W  AAAAAA  RRRRR   N  N N  II  N  N N  G  GGG   !            |
|           WW  WW  A    A  R   R   N   NN  II  N   NN  G    G                |
|           W    W  A    A  R    R  N    N  II  N    N   GGGG   !!!           |
|     For optimal performance we recommend to set                             |
|       NCORE = 2 up to number-of-cores-per-socket                            |
|     This setting can greatly improve the performance of VASP for DFT.       |
|     The default, NCORE=1 might be grossly inefficient on modern             |
|     multi-core architectures or massively parallel machines. Do your        |
|     Unfortunately you need to use the default for GW and RPA                |
|     calculations (for HF NCORE is supported but not extensively tested      |
|     yet).                                                                   |

   TITEL  = PAW_PBE Zn 06Sep2000
   POMASS =   65.390; ZVAL   =   12.000    mass and valenz
   ENMAX  =  276.723; ENMIN  =  207.542 eV

   TITEL  = PAW_PBE O 08Apr2002
   POMASS =   16.000; ZVAL   =    6.000    mass and valenz
   ENMAX  =  400.000; ENMIN  =  300.000 eV

[...]

   TITEL  = PAW_PBE H 15Jun2001
   POMASS =    1.000; ZVAL   =    1.000    mass and valenz
   ENMAX  =  250.000; ENMIN  =  200.000 eV

   TITEL  = PAW_PBE N 08Apr2002
   POMASS =   14.001; ZVAL   =    5.000    mass and valenz
   ENMAX  =  400.000; ENMIN  =  300.000 eV

  PAW_PBE Zn 06Sep2000                  :
  PAW_PBE O 08Apr2002                   :
  PAW_PBE C 08Apr2002                   :
  PAW_PBE H 15Jun2001                   :
  PAW_PBE N 08Apr2002                   :

 POSCAR: crystal
  positions in direct lattice
  velocities in cartesian coordinates
 exchange correlation table for  LEXCH =        8
   RHO(1)=    0.500       N(1)  =     2000
   RHO(2)=  100.500       N(2)  =     4000

 ion  position               nearest neighbor table
   1  0.336  0.331  0.587-   7 2.12  28 2.13  31 2.13  14 2.13  42 2.14  19 2.14
   2  0.004  0.336  0.087-   8 2.12  29 2.13  32 2.13  15 2.13  37 2.14  20 2.14
   3  0.669  0.004  0.587-   9 2.12  30 2.13  33 2.13  16 2.13  38 2.14  21 2.14
   4  0.664  0.669  0.087-  10 2.12  25 2.13  34 2.13  17 2.13  39 2.14  22 2.14
   5  0.996  0.664  0.587-  11 2.12  26 2.13  35 2.13  18 2.13  40 2.14  23 2.14
   6  0.331  0.996  0.087-  12 2.12  27 2.13  36 2.13  13 2.13  41 2.14  24 2.14
   7  0.426  0.262  0.443-  43 1.28   1 2.12
   8  0.164  0.426  0.943-  44 1.28   2 2.12
   9  0.738  0.164  0.443-  45 1.28   3 2.12
  10  0.574  0.738  0.943-  46 1.28   4 2.12
  11  0.836  0.574  0.443-  47 1.28   5 2.12
  12  0.262  0.836  0.943-  48 1.28   6 2.12
  13  0.431  0.155  0.232-  43 1.26   6 2.13
  14  0.276  0.431  0.732-  44 1.26   1 2.13
  15  0.845  0.276  0.232-  45 1.26   2 2.13
  16  0.569  0.845  0.732-  46 1.26   3 2.13
  17  0.724  0.569  0.232-  47 1.26   4 2.13
  18  0.155  0.724  0.732-  48 1.26   5 2.13
  19  0.400  0.492  0.441-  49 1.28   1 2.14
  20  0.908  0.400  0.941-  50 1.28   2 2.14
  21  0.508  0.908  0.441-  51 1.28   3 2.14
  22  0.600  0.508  0.941-  52 1.28   4 2.14
  23  0.092  0.600  0.441-  53 1.28   5 2.14
  24  0.492  0.092  0.941-  54 1.28   6 2.14
  25  0.503  0.605  0.229-  49 1.26   4 2.13
  26  0.898  0.503  0.729-  50 1.26   5 2.13
  27  0.395  0.898  0.229-  51 1.26   6 2.13
  28  0.497  0.395  0.729-  52 1.26   1 2.13
  29  0.102  0.497  0.229-  53 1.26   2 2.13
  30  0.605  0.102  0.729-  54 1.26   3 2.13
  31  0.173  0.234  0.448-  55 1.27   1 2.13
  32  0.939  0.173  0.948-  56 1.27   2 2.13
  33  0.766  0.939  0.448-  57 1.27   3 2.13
  34  0.827  0.766  0.948-  58 1.27   4 2.13
  35  0.061  0.827  0.448-  59 1.27   5 2.13
  36  0.234  0.061  0.948-  60 1.27   6 2.13
  37  0.070  0.241  0.234-  55 1.28   2 2.14
  38  0.829  0.070  0.734-  56 1.28   3 2.14
  39  0.759  0.829  0.234-  57 1.28   4 2.14
  40  0.930  0.759  0.734-  58 1.28   5 2.14
  41  0.171  0.930  0.234-  59 1.28   6 2.14
  42  0.241  0.171  0.734-  60 1.28   1 2.14
  43  0.374  0.185  0.329-  61 1.10  13 1.26   7 1.28
  44  0.188  0.374  0.829-  62 1.10  14 1.26   8 1.28
  45  0.815  0.188  0.329-  63 1.10  15 1.26   9 1.28
  46  0.626  0.815  0.829-  64 1.10  16 1.26  10 1.28
  47  0.812  0.626  0.329-  65 1.10  17 1.26  11 1.28
  48  0.185  0.812  0.829-  66 1.10  18 1.26  12 1.28
  49  0.471  0.514  0.321-  67 1.10  25 1.26  19 1.28
  50  0.957  0.471  0.821-  68 1.10  26 1.26  20 1.28
  51  0.486  0.957  0.321-  69 1.10  27 1.26  21 1.28
  52  0.529  0.486  0.821-  70 1.10  28 1.26  22 1.28
  53  0.043  0.529  0.321-  71 1.10  29 1.26  23 1.28
  54  0.514  0.043  0.821-  72 1.10  30 1.26  24 1.28
  55  0.141  0.291  0.353-  73 1.10  31 1.27  37 1.28
  56  0.850  0.141  0.853-  74 1.10  32 1.27  38 1.28
  57  0.709  0.850  0.353-  75 1.10  33 1.27  39 1.28
  58  0.859  0.709  0.853-  76 1.10  34 1.27  40 1.28
  59  0.150  0.859  0.353-  77 1.10  35 1.27  41 1.28
  60  0.291  0.150  0.853-  78 1.10  36 1.27  42 1.28
[...]
  94  0.667  0.333  0.160- 106 1.02
  95  0.027  0.089  0.176- 107 1.05
  96  0.938  0.027  0.676- 108 1.05
  97  0.911  0.938  0.176- 107 1.05
  98  0.973  0.911  0.676- 108 1.05
  99  0.062  0.973  0.176- 107 1.05
 100  0.089  0.062  0.676- 108 1.05
 101  1.000  1.000  0.015- 107 1.02
 102  1.000  0.000  0.515- 108 1.02
 103  0.333  0.667  0.038-  85 1.02  84 1.05  82 1.05  80 1.05
 104  0.667  0.333  0.538-  86 1.02  79 1.05  83 1.05  81 1.05
 105  0.333  0.667  0.538-  93 1.02  91 1.05  89 1.05  87 1.05
 106  0.667  0.333  0.038-  94 1.02  90 1.05  92 1.05  88 1.05
 107  0.000  1.000  0.137- 101 1.02  99 1.05  95 1.05  97 1.05
 108  0.000  0.000  0.637- 102 1.02 100 1.05  96 1.05  98 1.05

  LATTYP: Found a hexagonal cell.
 ALAT       =    12.5583089247
 C/A-ratio  =     0.6674146882

  Lattice vectors:

 A1 = (  12.5583089247,  -0.0000105085,  -0.0000092908)
 A2 = (  -6.2791571398,  10.8758170823,   0.0000056447)
 A3 = (  -0.0000060819,   0.0000007306,   8.3815998347)

Analysis of symmetry for initial positions (statically):
 Subroutine PRICEL returns:
 Original cell was already a primitive cell.

 Routine SETGRP: Setting up the symmetry group for a
 hexagonal supercell.

 Subroutine GETGRP returns: Found  6 space group operations
 (whereof  3 operations were pure point group operations)
 out of a pool of 24 trial point group operations.

The static configuration has the point symmetry C_3 .
 The point group associated with its full space group is C_6 .

Analysis of symmetry for dynamics (positions and initial velocities):
 Subroutine PRICEL returns:
 Original cell was already a primitive cell.

 Routine SETGRP: Setting up the symmetry group for a
 hexagonal supercell.

 Subroutine GETGRP returns: Found  6 space group operations
 (whereof  3 operations were pure point group operations)
 out of a pool of 24 trial point group operations.

The dynamic configuration has the point symmetry C_3 .
 The point group associated with its full space group is C_6 .

 Subroutine INISYM returns: Found  6 space group operations
 (whereof  3 operations are pure point group operations),
 and found     1 'primitive' translations

                                     Primitive cell

  volume of cell :    1144.7740

  direct lattice vectors                    reciprocal lattice vectors
    12.558308925 -0.000010509 -0.000009291     0.079628594  0.045973599  0.000000054
    -6.279157140 10.875817082  0.000005645     0.000000077  0.091947159 -0.000000008
    -0.000006082  0.000000731  8.381599835     0.000000088 -0.000000011  0.119308965

  length of vectors
    12.558308925 12.558312450  8.381599835     0.091947185  0.091947159  0.119308965

  position of ions in fractional coordinates (direct lattice)
     0.335534202  0.331118198  0.586930404
     0.004415809  0.335534316  0.086930578
     0.668881074  0.004415727  0.586930591
     0.664465391  0.668881571  0.086930463
     0.995583904  0.664465855  0.586930556
     0.331118258  0.995584162  0.086930497
     0.425968915  0.261962493  0.442761597
     0.164006567  0.425969672  0.942761804
     0.738036881  0.164006620  0.442762426
     0.574030138  0.738037349  0.942762168
     0.835992683  0.574030094  0.442761805
     0.261962461  0.835993442  0.942761930
     0.430655588  0.154774122  0.232130089
     0.275881559  0.430655795  0.732129748
     0.845225501  0.275881894  0.232130022
     0.569343661  0.845226071  0.732129856
     0.724117554  0.569344245  0.232129610
     0.154773791  0.724118212  0.732130177
     0.400247505  0.492155770  0.441257460
     0.908091565  0.400248129  0.941257542
     0.507843280  0.908091511  0.441257645
     0.599751657  0.507843704  0.941257264
     0.091907580  0.599751958  0.441257487
     0.492155219  0.091907896  0.941257812
     0.503377995  0.605052020  0.229026532
     0.898325942  0.503378363  0.729026498
     0.394947385  0.898326356  0.229026442
     0.496621226  0.394947775  0.729026311
     0.101673991  0.496622052  0.229026561
     0.605051899  0.101674153  0.729026730
     0.172931882  0.233578590  0.447543595
     0.939353012  0.172931979  0.947543552
     0.766421003  0.939353509  0.447543405
     0.827067502  0.766421387  0.947543616
     0.060646136  0.827067865  0.447543686
     0.233578303  0.060646217  0.947543582
     0.070252805  0.241393017  0.233638576
     0.828859492  0.070253168  0.733638557
     0.758606446  0.828859594  0.233638445
     0.929746569  0.758606838  0.733638643
     0.171139595  0.929746791  0.233638955
     0.241392510  0.171139924  0.733638801
     0.373650873  0.185435561  0.329227716
     0.188215588  0.373651147  0.829227640
     0.814564323  0.188215901  0.329227676
[...]
   -.547E+02 -.143E+03 -.357E+02   0.380E+02 0.163E+03 0.674E+02   0.167E+02 -.198E+02 -.317E+02   0.161E-02 0.396E-03 0.261E-03
   0.177E+03 -.578E+02 0.184E+02   -.189E+03 0.924E+02 -.431E+02   0.120E+02 -.346E+02 0.247E+02   0.372E-03 -.290E-03 -.202E-02
   0.139E+03 0.125E+03 0.184E+02   -.175E+03 -.118E+03 -.431E+02   0.360E+02 -.692E+01 0.247E+02   -.202E-02 0.194E-02 0.375E-02
   -.386E+02 0.183E+03 0.184E+02   0.146E+02 -.210E+03 -.431E+02   0.240E+02 0.277E+02 0.247E+02   0.226E-02 0.294E-02 0.292E-02
   -.177E+03 0.578E+02 0.184E+02   0.189E+03 -.924E+02 -.431E+02   -.120E+02 0.346E+02 0.247E+02   0.268E-02 -.108E-02 0.166E-02
   -.139E+03 -.125E+03 0.184E+02   0.175E+03 0.118E+03 -.431E+02   -.360E+02 0.692E+01 0.247E+02   -.967E-03 0.433E-03 -.285E-02
   0.386E+02 -.183E+03 0.184E+02   -.146E+02 0.210E+03 -.431E+02   -.240E+02 -.277E+02 0.247E+02   -.248E-02 0.107E-02 -.452E-03
   0.415E+02 0.181E+03 -.207E+02   -.181E+02 -.208E+03 0.462E+02   -.234E+02 0.274E+02 -.254E+02   0.991E-03 -.413E-02 -.271E-02
   -.136E+03 0.126E+03 -.207E+02   0.171E+03 -.120E+03 0.462E+02   -.354E+02 -.655E+01 -.254E+02   0.609E-03 0.301E-03 -.396E-02
   -.177E+03 -.545E+02 -.207E+02   0.189E+03 0.885E+02 0.462E+02   -.120E+02 -.340E+02 -.254E+02   0.215E-02 -.367E-02 0.245E-02
   -.415E+02 -.181E+03 -.207E+02   0.181E+02 0.208E+03 0.462E+02   0.234E+02 -.274E+02 -.254E+02   -.597E-02 0.344E-02 -.243E-02
   0.136E+03 -.126E+03 -.207E+02   -.171E+03 0.120E+03 0.462E+02   0.354E+02 0.655E+01 -.254E+02   0.751E-03 -.167E-02 -.254E-02
   0.177E+03 0.545E+02 -.207E+02   -.189E+03 -.885E+02 0.462E+02   0.120E+02 0.340E+02 -.254E+02   0.949E-03 0.173E-02 -.336E-02
   -.576E+02 0.142E+03 0.349E+02   0.411E+02 -.163E+03 -.664E+02   0.164E+02 0.202E+02 0.315E+02   -.290E-03 -.245E-02 -.202E-02
   -.152E+03 0.214E+02 0.349E+02   0.161E+03 -.457E+02 -.664E+02   -.927E+01 0.243E+02 0.315E+02   0.616E-02 0.163E-03 -.371E-02
   -.946E+02 -.121E+03 0.349E+02   0.120E+03 0.117E+03 -.664E+02   -.257E+02 0.413E+01 0.315E+02   0.869E-02 -.221E-02 0.322E-02
   0.576E+02 -.142E+03 0.349E+02   -.411E+02 0.163E+03 -.664E+02   -.164E+02 -.202E+02 0.315E+02   -.433E-02 0.539E-03 -.228E-02
   0.152E+03 -.214E+02 0.349E+02   -.161E+03 0.457E+02 -.664E+02   0.927E+01 -.243E+02 0.315E+02   -.426E-02 -.930E-03 -.682E-05
   0.946E+02 0.121E+03 0.349E+02   -.120E+03 -.117E+03 -.664E+02   0.257E+02 -.413E+01 0.315E+02   -.573E-02 -.198E-02 -.142E-02
   0.962E+02 0.352E+02 0.123E+02   -.103E+03 -.384E+02 -.131E+02   0.670E+01 0.320E+01 0.898E+00   -.635E-03 -.724E-03 -.211E-02
   0.176E+02 0.101E+03 0.123E+02   -.182E+02 -.108E+03 -.131E+02   0.575E+00 0.740E+01 0.898E+00   -.112E-02 -.909E-03 -.165E-02
   -.786E+02 0.657E+02 0.123E+02   0.847E+02 -.699E+02 -.131E+02   -.612E+01 0.420E+01 0.898E+00   0.940E-03 -.802E-03 -.957E-03
   -.962E+02 -.352E+02 0.123E+02   0.103E+03 0.384E+02 -.131E+02   -.670E+01 -.320E+01 0.898E+00   0.108E-02 0.113E-02 -.707E-03
   -.176E+02 -.101E+03 0.122E+02   0.182E+02 0.108E+03 -.131E+02   -.575E+00 -.740E+01 0.898E+00   -.910E-03 0.166E-02 -.449E-03
   0.786E+02 -.657E+02 0.123E+02   -.847E+02 0.699E+02 -.131E+02   0.612E+01 -.420E+01 0.898E+00   -.137E-02 0.636E-03 -.186E-02
   -.702E+02 0.784E+02 0.275E+02   0.758E+02 -.829E+02 -.289E+02   -.566E+01 0.446E+01 0.145E+01   0.281E-03 -.663E-03 -.156E-03
   -.103E+03 -.216E+02 0.275E+02   0.110E+03 0.242E+02 -.289E+02   -.669E+01 -.268E+01 0.145E+01   -.836E-03 -.418E-03 0.885E-03
   -.328E+02 -.100E+03 0.275E+02   0.339E+02 0.107E+03 -.289E+02   -.103E+01 -.714E+01 0.145E+01   0.806E-04 -.110E-02 -.857E-03
   0.702E+02 -.784E+02 0.275E+02   -.758E+02 0.829E+02 -.289E+02   0.566E+01 -.446E+01 0.145E+01   0.439E-03 -.278E-03 0.112E-03
   0.103E+03 0.216E+02 0.275E+02   -.110E+03 -.242E+02 -.289E+02   0.669E+01 0.268E+01 0.145E+01   -.838E-03 -.512E-04 -.145E-03
   0.328E+02 0.100E+03 0.275E+02   -.339E+02 -.107E+03 -.289E+02   0.103E+01 0.714E+01 0.145E+01   0.739E-04 0.400E-04 0.549E-05
   0.300E+02 -.101E+03 -.244E+02   -.310E+02 0.108E+03 0.257E+02   0.963E+00 -.722E+01 -.129E+01   0.929E-03 -.647E-03 0.269E-03
   0.103E+03 -.246E+02 -.244E+02   -.109E+03 0.273E+02 0.257E+02   0.673E+01 -.277E+01 -.129E+01   0.140E-02 0.117E-02 0.277E-03
   0.726E+02 0.765E+02 -.244E+02   -.783E+02 -.810E+02 0.257E+02   0.577E+01 0.444E+01 -.129E+01   0.131E-02 0.792E-03 0.234E-02
   -.300E+02 0.101E+03 -.244E+02   0.310E+02 -.108E+03 0.257E+02   -.963E+00 0.722E+01 -.129E+01   -.862E-03 0.457E-03 -.122E-02
   -.103E+03 0.246E+02 -.244E+02   0.109E+03 -.273E+02 0.257E+02   -.673E+01 0.277E+01 -.129E+01   -.106E-02 -.754E-03 0.287E-03
   -.725E+02 -.765E+02 -.244E+02   0.783E+02 0.810E+02 0.257E+02   -.577E+01 -.444E+01 -.129E+01   -.170E-04 -.161E-02 0.122E-02
[...]
   0.279E+01 -.282E+02 -.135E+02   -.422E+01 0.345E+02 0.156E+02   0.143E+01 -.628E+01 -.208E+01   0.647E-04 0.767E-05 0.609E-05
   0.258E+02 -.117E+02 -.135E+02   -.320E+02 0.136E+02 0.156E+02   0.615E+01 -.190E+01 -.208E+01   -.174E-03 -.152E-04 -.123E-03
   0.231E+02 0.165E+02 -.135E+02   -.278E+02 -.209E+02 0.156E+02   0.472E+01 0.438E+01 -.208E+01   0.682E-04 -.278E-03 0.641E-04
   -.279E+01 0.282E+02 -.135E+02   0.422E+01 -.345E+02 0.156E+02   -.143E+01 0.628E+01 -.208E+01   -.187E-03 -.140E-03 -.879E-04
   -.259E+02 0.117E+02 -.135E+02   0.320E+02 -.136E+02 0.156E+02   -.615E+01 0.190E+01 -.208E+01   -.454E-05 -.138E-03 -.525E-05
   -.231E+02 -.165E+02 -.135E+02   0.278E+02 0.209E+02 0.156E+02   -.472E+01 -.438E+01 -.208E+01   -.243E-04 0.135E-03 -.361E-04
   0.670E-03 0.764E-04 0.616E+02   -.320E-02 0.803E-04 -.691E+02   -.543E-05 0.652E-06 0.748E+01   0.527E-04 -.114E-03 0.262E-04
   0.613E-03 -.554E-04 0.616E+02   -.127E-02 -.140E-02 -.691E+02   -.543E-05 0.652E-06 0.748E+01   -.169E-03 -.466E-04 0.493E-04
   0.742E-02 -.469E-02 -.140E+01   0.167E-02 -.121E-02 -.188E+01   -.238E-05 0.286E-06 0.328E+01   -.134E-02 0.834E-03 0.833E-03
   0.142E-01 0.290E-02 -.140E+01   0.453E-02 0.532E-03 -.188E+01   -.238E-05 0.286E-06 0.328E+01   -.561E-03 0.317E-03 0.116E-02
   0.437E-01 0.929E-02 -.862E+01   0.131E-01 0.174E-02 0.520E+01   -.247E-05 0.297E-06 0.341E+01   0.108E-02 -.138E-02 -.688E-03
   0.366E-01 -.638E-02 -.862E+01   0.117E-01 -.147E-02 0.520E+01   -.247E-05 0.297E-06 0.341E+01   -.238E-03 0.796E-03 -.105E-02
   -.289E-01 0.120E-02 0.453E+01   -.109E-01 0.608E-03 -.122E+01   0.240E-05 -.288E-06 -.330E+01   0.101E-02 -.120E-02 -.110E-02
   -.724E-02 -.150E-01 0.453E+01   -.469E-02 -.519E-02 -.122E+01   0.240E-05 -.288E-06 -.330E+01   -.124E-02 -.582E-04 -.153E-02
   0.331E+00 -.742E-02 0.124E+02   0.157E-12 0.330E-12 -.334E-12   0.899E-05 -.108E-05 -.124E+02   0.116E-03 -.114E-01 -.374E-01

 POSITION                                       TOTAL-FORCE (eV/Angst)
      2.13460      3.60118      4.91941        -0.000050     -0.000075      0.000255
     -2.05142      3.64921      0.72862         0.000040     -0.000080      0.000255
      8.37228      0.04802      4.91941         0.000090     -0.000005      0.000255
      4.14455      7.27463      0.72861         0.000050      0.000075      0.000255
      8.33056      7.22660      4.91941        -0.000040      0.000080      0.000255
     -2.09314     10.82779      0.72862        -0.000090      0.000005      0.000255
      3.70454      2.84905      3.71105        -0.000173     -0.000271     -0.000593
     -0.61509      4.63277      7.90185         0.000148     -0.000285     -0.000593
      8.23867      1.78370      3.71105         0.000321     -0.000014     -0.000593
      2.57459      8.02675      7.90185         0.000173      0.000271     -0.000593
      6.89423      6.24304      3.71105        -0.000148      0.000285     -0.000593
     -1.95953      9.09211      7.90186        -0.000321      0.000014     -0.000593
      4.43645      1.68329      1.94562        -0.001656     -0.000376     -0.001188
      0.76045      4.68373      6.13642        -0.000502     -0.001622     -0.001188
      8.88230      3.00043      1.94561         0.001153     -0.001246     -0.001188
      1.84268      9.19252      6.13642         0.001656      0.000376     -0.001188
      5.51869      6.19208      1.94561         0.000502      0.001622     -0.001188
     -2.60316      7.87538      6.13642        -0.001153      0.001246     -0.001188
      1.93611      5.35259      3.69844        -0.001285     -0.000846      0.002144
      8.89087      4.35302      7.88924         0.000090     -0.001536      0.002144
      0.67560      9.87623      3.69845         0.001375     -0.000690      0.002144
      4.34303      5.52321      7.88924         0.001285      0.000846      0.002144
     -2.61174      6.52279      3.69845        -0.000090      0.001536      0.002144
      5.60353      0.99957      7.88924        -0.001375      0.000690      0.002144
      2.52236      6.58043      1.91961        -0.000626      0.000312     -0.001652
      8.12066      5.47464      6.11040        -0.000583     -0.000386     -0.001652
     -0.68086      9.77003      1.91961         0.000043     -0.000698     -0.001652
      3.75678      4.29538      6.11040         0.000626     -0.000312     -0.001652
     -1.84152      5.40117      1.91961         0.000583      0.000386     -0.001652
      6.96000      1.10578      6.11041        -0.000043      0.000698     -0.001652
      0.70505      2.54036      3.75113         0.000210      0.000416      0.001192
     10.71081      1.88077      7.94192        -0.000255      0.000390      0.001192
      3.72660     10.21623      3.75113        -0.000465     -0.000026      0.001192
      5.57408      8.33545      7.94193        -0.000210     -0.000416      0.001192
     -4.43168      8.99504      3.75114         0.000255     -0.000390      0.001192
      2.55254      0.65958      7.94193         0.000465      0.000026      0.001192
     -0.63349      2.62535      1.95827        -0.001160      0.000196     -0.001378
      9.96794      0.76405      6.14906        -0.000749     -0.000907     -0.001378
      4.32227      9.01452      1.95826         0.000410     -0.001102     -0.001378
      6.91263      8.25046      6.14906         0.001160     -0.000196     -0.001378
     -3.68880     10.11175      1.95827         0.000749      0.000907     -0.001378
      1.95686      1.86128      6.14907        -0.000410      0.001102     -0.001378
      3.52804      2.01676      2.75945         0.002108      0.001678      0.000684
      0.01745      4.06376      6.95025        -0.000399      0.002664      0.000684
      9.04771      2.04699      2.75945        -0.002507      0.000986      0.000684
      2.75109      8.85905      6.95026        -0.002108     -0.001678      0.000684
      6.26169      6.81205      2.75945         0.000399     -0.002664      0.000684
     -2.76858      8.82882      6.95026         0.002507     -0.000986      0.000684
      2.68397      5.59199      2.69223         0.000751     -0.001583      0.000605
      9.05748      5.12038      6.88302         0.001746     -0.000141      0.000605
      0.09435     10.40421      2.69223         0.000995      0.001441      0.000605
      3.59517      5.28382      6.88303        -0.000751      0.001583      0.000605
     -2.77834      5.75544      2.69224        -0.001746      0.000141      0.000605
      6.18478      0.47160      6.88303        -0.000995     -0.001441      0.000605
     -0.05548      3.16722      2.95790        -0.000775     -0.001193     -0.000988
      9.78767      1.53556      7.14869         0.000646     -0.001268     -0.000988
      3.56398      9.24416      2.95789         0.001421     -0.000074     -0.000988
      6.33461      7.70859      7.14869         0.000775      0.001193     -0.000988
     -3.50853      9.34025      2.95789        -0.000646      0.001268     -0.000988
      2.71515      1.63165      7.14869        -0.001421      0.000074     -0.000988
[...]
      6.27914      3.62527      1.33930        -0.000000      0.000000      0.000667
     -0.21847      0.97230      1.47515         0.001078      0.000503      0.001262
     11.60703      0.29694      5.66594         0.000103      0.001185      0.001262
      5.54633     10.20046      1.47515        -0.000975      0.000682      0.001262
      6.49760      9.90350      5.66594        -0.001078     -0.000503      0.001262
     -5.32793     10.57887      1.47514        -0.000103     -0.001185      0.001262
      0.73278      0.67533      5.66594         0.000975     -0.000682      0.001262
      6.27915     10.87581      0.12364        -0.000000      0.000000      0.002622
     12.55830     -0.00001      4.31444        -0.000000      0.000000      0.002622
     -0.00001      7.25055      0.31903        -0.000000      0.000000      0.003930
      6.27913      3.62526      4.50982        -0.000000      0.000000      0.003930
     -0.00007      7.25053      4.50795        -0.000000      0.000000      0.000048
      6.27910      3.62527      0.31715        -0.000000      0.000000      0.000048
     -6.27912     10.87582      1.14542         0.000000     -0.000000     -0.001267
      0.00001      0.00002      5.33622         0.000000     -0.000000     -0.001267
    total drift:                                0.330985     -0.018809      0.001612

  FREE ENERGIE OF THE ION-ELECTRON SYSTEM (eV)
  free  energy   TOTEN  =      -644.27660232 eV

  energy  without entropy=     -644.27660232  energy(sigma->0) =     -644.27660232

 writing wavefunctions

 total charge

# of ion       s       p       d       tot
    1        0.360   0.355   9.905  10.620
    2        0.360   0.355   9.905  10.620
    3        0.360   0.355   9.905  10.620
    4        0.360   0.355   9.905  10.620
    5        0.360   0.355   9.905  10.620
    6        0.360   0.355   9.905  10.620
    7        1.568   3.575   0.000   5.142
    8        1.568   3.575   0.000   5.142
    9        1.568   3.575   0.000   5.142
   10        1.568   3.575   0.000   5.142
   11        1.568   3.575   0.000   5.142
   12        1.568   3.575   0.000   5.142
   13        1.571   3.566   0.000   5.137
   14        1.571   3.566   0.000   5.137
   15        1.571   3.566   0.000   5.137
   16        1.571   3.566   0.000   5.137
   17        1.571   3.566   0.000   5.137
   18        1.571   3.566   0.000   5.137
   19        1.568   3.570   0.000   5.138
   20        1.568   3.570   0.000   5.138
   21        1.568   3.570   0.000   5.138
   22        1.568   3.570   0.000   5.138
   23        1.568   3.570   0.000   5.138
   24        1.568   3.570   0.000   5.138
   25        1.571   3.568   0.000   5.138
   26        1.571   3.568   0.000   5.138
   27        1.571   3.568   0.000   5.138
   28        1.571   3.568   0.000   5.138
   29        1.571   3.568   0.000   5.138
   30        1.571   3.568   0.000   5.138
   31        1.571   3.568   0.000   5.138
   32        1.571   3.568   0.000   5.138
   33        1.571   3.568   0.000   5.138
   34        1.571   3.568   0.000   5.138
   35        1.571   3.568   0.000   5.138
   36        1.571   3.568   0.000   5.138
   37        1.568   3.572   0.000   5.140
   38        1.568   3.572   0.000   5.140
   39        1.568   3.572   0.000   5.140
   40        1.568   3.572   0.000   5.140
   41        1.568   3.572   0.000   5.140
   42        1.568   3.572   0.000   5.140
   43        0.875   1.709   0.000   2.584
   44        0.875   1.709   0.000   2.584
   45        0.875   1.709   0.000   2.584
   46        0.875   1.709   0.000   2.584
   47        0.875   1.709   0.000   2.584
   48        0.875   1.709   0.000   2.584
   49        0.874   1.708   0.000   2.582
   50        0.874   1.708   0.000   2.582
   51        0.874   1.708   0.000   2.582
   52        0.874   1.708   0.000   2.582
   53        0.874   1.708   0.000   2.582
   54        0.874   1.708   0.000   2.582
   55        0.875   1.708   0.000   2.583
   56        0.875   1.708   0.000   2.583
   57        0.875   1.708   0.000   2.583
   58        0.875   1.708   0.000   2.583
   59        0.875   1.708   0.000   2.583
   60        0.875   1.708   0.000   2.583
[...]
   94        0.625   0.084   0.000   0.709
   95        0.581   0.088   0.000   0.668
   96        0.581   0.088   0.000   0.668
   97        0.581   0.088   0.000   0.668
   98        0.581   0.088   0.000   0.668
   99        0.581   0.088   0.000   0.668
  100        0.581   0.088   0.000   0.668
  101        0.625   0.084   0.000   0.709
  102        0.625   0.084   0.000   0.709
  103        1.224   2.820   0.000   4.044
  104        1.224   2.820   0.000   4.044
  105        1.224   2.816   0.000   4.039
  106        1.224   2.816   0.000   4.039
  107        1.224   2.818   0.000   4.042
  108        1.224   2.818   0.000   4.042
tot        107.485 181.228  59.427 348.140