 vasp.5.4.1 24Jun15 (build Aug 03 2015 13:31:17) complex

 executed on      LinuxIFC_2015xe date 2021.07.13  23:27:10

 INCAR:
 POTCAR:    PAW_PBE Mn_pv 02Aug2007
 POTCAR:   PAW_PBE O 08Apr2002
 POTCAR:   PAW_PBE C 08Apr2002
 POTCAR:   PAW_PBE H 15Jun2001
 POTCAR:   PAW_PBE N 08Apr2002

 POTCAR:    PAW_PBE Mn_pv 02Aug2007
   VRHFIN =Mn: 3p4s3d

   TITEL  = PAW_PBE Mn_pv 02Aug2007
   POMASS =   54.938; ZVAL   =   13.000    mass and valenz
   ENMAX  =  269.864; ENMIN  =  202.398 eV

 POTCAR:   PAW_PBE O 08Apr2002
   VRHFIN =O: s2p4

   TITEL  = PAW_PBE O 08Apr2002
   POMASS =   16.000; ZVAL   =    6.000    mass and valenz
   ENMAX  =  400.000; ENMIN  =  300.000 eV
   QCUT   =   -5.520; QGAM   =   11.041    optimization parameters

   Description
     l     E      TYP  RCUT    TYP  RCUT
     0   .000     23  1.200
     0  -.700     23  1.200
     1   .000     23  1.520
     1   .600     23  1.520
     2   .000      7  1.500

 POTCAR:   PAW_PBE C 08Apr2002
   VRHFIN =C: s2p2

[...]

 POTCAR:   PAW_PBE H 15Jun2001
   VRHFIN =H: ultrasoft test

   TITEL  = PAW_PBE H 15Jun2001
   POMASS =    1.000; ZVAL   =    1.000    mass and valenz
   ENMAX  =  250.000; ENMIN  =  200.000 eV
   QCUT   =   -5.749; QGAM   =   11.498    optimization parameters

[...]

 POTCAR:   PAW_PBE N 08Apr2002
   VRHFIN =N: s2p3

   TITEL  = PAW_PBE N 08Apr2002
   POMASS =   14.001; ZVAL   =    5.000    mass and valenz
   ENMAX  =  400.000; ENMIN  =  300.000 eV
   QCUT   =   -5.562; QGAM   =   11.124    optimization parameters

   Description
     l     E      TYP  RCUT    TYP  RCUT
     0   .000     23  1.200
     0   .000     23  1.200
     1   .000     23  1.500
     1   .700     23  1.500
     2   .000      7  1.500

  PAW_PBE Mn_pv 02Aug2007               :
 PAW_PBE O 08Apr2002                    :
 PAW_PBE C 08Apr2002                    :
 PAW_PBE H 15Jun2001                    :
 PAW_PBE N 08Apr2002                    :

 POSCAR: C3 H8 Mn N2 O6
  positions in direct lattice
  velocities in cartesian coordinates
 exchange correlation table for  LEXCH =        8
   RHO(1)=    0.500       N(1)  =     2000
   RHO(2)=  100.500       N(2)  =     4000

 ion  position               nearest neighbor table
   1  0.998  0.253  0.997-  10 2.18  13 2.19   5 2.19  18 2.21  28 2.23  21 2.24
   2  0.998  0.747  0.497-   9 2.18  14 2.19   6 2.19  17 2.21  27 2.23  22 2.24
   3  0.498  0.753  0.997-  12 2.18  15 2.19   7 2.19  20 2.21  26 2.23  23 2.24
   4  0.498  0.247  0.497-  11 2.18  16 2.19   8 2.19  19 2.21  25 2.23  24 2.24
   5  0.156  0.142  0.164-  33 1.26   1 2.19
   6  0.156  0.858  0.664-  34 1.26   2 2.19
   7  0.656  0.642  0.164-  35 1.26   3 2.19
   8  0.656  0.358  0.664-  36 1.26   4 2.19
   9  0.047  0.516  0.629-  37 1.27   2 2.18
  10  0.047  0.484  0.129-  38 1.27   1 2.18
  11  0.547  0.016  0.629-  39 1.27   4 2.18
  12  0.547  0.984  0.129-  40 1.27   3 2.18
  13  0.047  0.330  0.811-  37 1.27   1 2.19
  14  0.047  0.670  0.311-  38 1.27   2 2.19
  15  0.547  0.830  0.811-  39 1.27   3 2.19
  16  0.547  0.170  0.311-  40 1.27   4 2.19
  17  0.938  0.972  0.350-  41 1.26   2 2.21
  18  0.938  0.028  0.850-  42 1.26   1 2.21
  19  0.438  0.472  0.350-  43 1.26   4 2.21
  20  0.438  0.528  0.850-  44 1.26   3 2.21
  21  0.944  0.167  0.181-  41 1.28   1 2.24
  22  0.944  0.833  0.681-  42 1.28   2 2.24
  23  0.444  0.667  0.181-  43 1.28   3 2.24
  24  0.444  0.333  0.681-  44 1.28   4 2.24
  25  0.336  0.137  0.333-  33 1.28   4 2.23
  26  0.336  0.863  0.833-  34 1.28   3 2.23
  27  0.836  0.637  0.333-  35 1.28   2 2.23
  28  0.836  0.363  0.833-  36 1.28   1 2.23
  29  0.696  0.280  0.100-  57 1.09  53 1.09  49 1.09  93 1.48
  30  0.696  0.720  0.600-  58 1.09  54 1.09  50 1.09  94 1.48
  31  0.196  0.780  0.100-  59 1.09  55 1.09  51 1.09  95 1.48
  32  0.196  0.220  0.600-  60 1.09  56 1.09  52 1.09  96 1.48
  33  0.246  0.211  0.249-  61 1.11   5 1.26  25 1.28
  34  0.246  0.789  0.749-  62 1.11   6 1.26  26 1.28
  35  0.746  0.711  0.249-  63 1.11   7 1.26  27 1.28
  36  0.746  0.289  0.749-  64 1.11   8 1.26  28 1.28
  37  0.038  0.472  0.758-  65 1.11   9 1.27  13 1.27
  38  0.038  0.528  0.258-  66 1.11  10 1.27  14 1.27
  39  0.538  0.972  0.758-  67 1.11  11 1.27  15 1.27
  40  0.538  0.028  0.258-  68 1.11  12 1.27  16 1.27
  41  0.972  0.030  0.255-  69 1.11  17 1.26  21 1.28
  42  0.972  0.970  0.755-  70 1.11  18 1.26  22 1.28
  43  0.472  0.530  0.255-  71 1.11  19 1.26  23 1.28
  44  0.472  0.470  0.755-  72 1.11  20 1.26  24 1.28
  45  0.805  0.241  0.422-  81 1.09  89 1.09  85 1.09  93 1.48
  46  0.805  0.759  0.922-  82 1.09  90 1.09  86 1.09  94 1.48
  47  0.305  0.741  0.422-  83 1.09  87 1.09  91 1.09  95 1.48
  48  0.305  0.259  0.922-  84 1.09  88 1.09  92 1.09  96 1.48
  49  0.687  0.152  0.076-  29 1.09
  50  0.687  0.848  0.576-  30 1.09
  51  0.187  0.652  0.076-  31 1.09
  52  0.187  0.348  0.576-  32 1.09
  53  0.696  0.343  0.991-  29 1.09
  54  0.696  0.657  0.491-  30 1.09
  55  0.196  0.843  0.991-  31 1.09
  56  0.196  0.157  0.491-  32 1.09
  57  0.629  0.324  0.116-  29 1.09
  58  0.629  0.676  0.616-  30 1.09
  59  0.129  0.824  0.116-  31 1.09
  60  0.129  0.176  0.616-  32 1.09
[...]
  82  0.883  0.730  0.037-  46 1.09
  83  0.383  0.770  0.537-  47 1.09
  84  0.383  0.230  0.037-  48 1.09
  85  0.797  0.111  0.406-  45 1.09
  86  0.797  0.889  0.906-  46 1.09
  87  0.297  0.611  0.406-  47 1.09
  88  0.297  0.389  0.906-  48 1.09
  89  0.738  0.289  0.434-  45 1.09
  90  0.738  0.711  0.934-  46 1.09
  91  0.238  0.789  0.434-  47 1.09
  92  0.238  0.211  0.934-  48 1.09
  93  0.800  0.311  0.263-  77 1.06  73 1.06  45 1.48  29 1.48
  94  0.800  0.689  0.763-  78 1.06  74 1.06  46 1.48  30 1.48
  95  0.300  0.811  0.263-  79 1.06  75 1.06  47 1.48  31 1.48
  96  0.300  0.189  0.763-  80 1.06  76 1.06  48 1.48  32 1.48

  LATTYP: Found a simple monoclinic cell.
 ALAT       =    16.1816923745
 B/A-ratio  =     0.5184007643
 C/A-ratio  =     1.4145184343
 COS(beta)  =    -0.9554525259

  Lattice vectors:

 A1 = (  -5.3429128588,   0.0000000000, -15.2741759282)
 A2 = (   0.0000000000,  -8.3886016948,   0.0000000000)
 A3 = (   0.8441924179,   0.0000000000,  22.8737293122)

Analysis of symmetry for initial positions (statically):
 Subroutine PRICEL returns following result:

  LATTYP: Found a base centered monoclinic cell.
 ALAT       =    14.3405522966
 B/A-ratio  =     0.5849566684
 C/A-ratio  =     1.7707430550
 COS(beta)  =    -0.8233570046

[...]

   2 primitive cells build up your supercell.

 Routine SETGRP: Setting up the symmetry group for a
 simple monoclinic supercell.

 Subroutine GETGRP returns: Found  2 space group operations
 (whereof  1 operations were pure point group operations)
 out of a pool of  4 trial point group operations.

The static configuration has the point symmetry C_1 .
 The point group associated with its full space group is C_1h.

Analysis of symmetry for dynamics (positions and initial velocities):
 Subroutine PRICEL returns following result:

  LATTYP: Found a base centered monoclinic cell.
 ALAT       =    14.3405522966
 B/A-ratio  =     0.5849566684
 C/A-ratio  =     1.7707430550
 COS(beta)  =    -0.8233570046

  Lattice vectors:

 A1 = (   7.1701779022,   4.1943022979,   0.0375352364)
 A2 = (   7.1701779022,  -4.1942993969,   0.0375352364)
 A3 = ( -24.1819911678,  -0.0000058020,  -7.7496943295)

   2 primitive cells build up your supercell.

 Routine SETGRP: Setting up the symmetry group for a
 simple monoclinic supercell.

 Subroutine GETGRP returns: Found  2 space group operations
 (whereof  1 operations were pure point group operations)
 out of a pool of  4 trial point group operations.

The dynamic configuration has the point symmetry C_1 .
 The point group associated with its full space group is C_1h.

Analysis of magnetic symmetry:
 Subroutine PRICEL returns:
 Original cell was already a primitive cell.

 Subroutine MAGSYM returns: Found  2 space group operations
 (whereof  1 operations were pure point group operations)
 out of a pool of  2 trial space group operations
 (whereof  1 operations were pure point group operations)
 and found also     1 'primitive' translations

The magnetic configuration has the point symmetry C_1 .
 The point group associated with its full space group is C_1h.

 KPOINTS: Automatic mesh

Automatic generation of k-mesh.
Space group operators:
 irot       det(A)        alpha          n_x          n_y          n_z        tau_x        tau_y        tau_z
    1     1.000000     0.000000     1.000000     0.000000     0.000000     0.000000     0.000000     0.000000
    2    -1.000000   180.000000     0.000000     1.000000     0.000000     0.500000    -0.500000     1.500000

 Subroutine IBZKPT returns following result:

 Found      8 irreducible k-points:

 Following reciprocal coordinates:
            Coordinates               Weight
  0.125000  0.125000  0.250000      4.000000
  0.375000  0.125000  0.250000      4.000000
 -0.375000  0.125000  0.250000      4.000000
 -0.125000  0.125000  0.250000      4.000000
  0.125000  0.375000  0.250000      4.000000
  0.375000  0.375000  0.250000      4.000000
 -0.375000  0.375000  0.250000      4.000000
 -0.125000  0.375000  0.250000      4.000000

 Following cartesian coordinates:
            Coordinates               Weight
  0.008518  0.014901  0.037939      4.000000
  0.025898  0.014901  0.048227      4.000000
 -0.026241  0.014901  0.017363      4.000000
 -0.008861  0.014901  0.027651      4.000000
  0.008518  0.044704  0.037939      4.000000
  0.025898  0.044704  0.048227      4.000000
 -0.026241  0.044704  0.017363      4.000000
 -0.008861  0.044704  0.027651      4.000000

 Subroutine IBZKPT_HF returns following result:

 Found     32 k-points in 1st BZ
 the following     32 k-points will be used (e.g. in the exchange kernel)
 Following reciprocal coordinates:   # in IRBZ
  0.125000  0.125000  0.250000    0.03125000   1 t-inv F
  0.375000  0.125000  0.250000    0.03125000   2 t-inv F
 -0.375000  0.125000  0.250000    0.03125000   3 t-inv F
 -0.125000  0.125000  0.250000    0.03125000   4 t-inv F
  0.125000  0.375000  0.250000    0.03125000   5 t-inv F
  0.375000  0.375000  0.250000    0.03125000   6 t-inv F
 -0.375000  0.375000  0.250000    0.03125000   7 t-inv F
 -0.125000  0.375000  0.250000    0.03125000   8 t-inv F
  0.125000 -0.125000  0.250000    0.03125000   1 t-inv F
  0.375000 -0.125000  0.250000    0.03125000   2 t-inv F
 -0.375000 -0.125000  0.250000    0.03125000   3 t-inv F
 -0.125000 -0.125000  0.250000    0.03125000   4 t-inv F
  0.125000 -0.375000  0.250000    0.03125000   5 t-inv F
  0.375000 -0.375000  0.250000    0.03125000   6 t-inv F
 -0.375000 -0.375000  0.250000    0.03125000   7 t-inv F
 -0.125000 -0.375000  0.250000    0.03125000   8 t-inv F
 -0.125000 -0.125000 -0.250000    0.03125000   1 t-inv T
 -0.125000  0.125000 -0.250000    0.03125000   1 t-inv T
 -0.375000 -0.125000 -0.250000    0.03125000   2 t-inv T
 -0.375000  0.125000 -0.250000    0.03125000   2 t-inv T
  0.375000 -0.125000 -0.250000    0.03125000   3 t-inv T
  0.375000  0.125000 -0.250000    0.03125000   3 t-inv T
  0.125000 -0.125000 -0.250000    0.03125000   4 t-inv T
[...]
   0.110E+03 -.874E+02 -.120E+02   -.114E+03 0.124E+03 -.503E+01   0.366E+01 -.368E+02 0.170E+02   -.255E-04 0.331E-03 -.168E-03
   0.110E+03 0.874E+02 -.120E+02   -.114E+03 -.124E+03 -.503E+01   0.366E+01 0.368E+02 0.170E+02   0.113E-05 -.328E-03 -.180E-03
   -.101E+01 0.120E+03 0.206E+01   0.294E+02 -.141E+03 0.182E+02   -.284E+02 0.215E+02 -.202E+02   0.247E-03 -.127E-03 0.151E-03
   -.100E+01 -.120E+03 0.205E+01   0.294E+02 0.141E+03 0.182E+02   -.284E+02 -.215E+02 -.202E+02   0.246E-03 0.979E-04 0.156E-03
   -.100E+01 0.120E+03 0.205E+01   0.294E+02 -.141E+03 0.182E+02   -.284E+02 0.215E+02 -.202E+02   0.326E-03 -.146E-03 0.197E-03
   -.100E+01 -.120E+03 0.205E+01   0.294E+02 0.141E+03 0.182E+02   -.284E+02 -.215E+02 -.202E+02   0.315E-03 0.167E-03 0.189E-03
   0.391E+02 0.279E+02 0.717E+02   -.429E+02 -.289E+02 -.767E+02   0.375E+01 0.101E+01 0.496E+01   -.298E-03 -.783E-04 -.540E-03
   0.391E+02 -.279E+02 0.717E+02   -.429E+02 0.289E+02 -.767E+02   0.375E+01 -.101E+01 0.496E+01   -.305E-03 0.860E-04 -.534E-03
   0.391E+02 0.279E+02 0.717E+02   -.429E+02 -.289E+02 -.767E+02   0.375E+01 0.101E+01 0.496E+01   -.297E-03 -.119E-03 -.529E-03
   0.391E+02 -.279E+02 0.717E+02   -.429E+02 0.289E+02 -.767E+02   0.375E+01 -.101E+01 0.496E+01   -.303E-03 0.110E-03 -.540E-03
   0.194E+00 -.133E+03 -.209E+01   -.145E+00 0.140E+03 0.208E+01   -.450E-01 -.684E+01 0.498E-02   -.440E-04 0.476E-03 -.330E-04
   0.194E+00 0.133E+03 -.209E+01   -.145E+00 -.140E+03 0.208E+01   -.450E-01 0.684E+01 0.498E-02   -.296E-04 -.483E-03 -.215E-04
   0.192E+00 -.133E+03 -.208E+01   -.145E+00 0.140E+03 0.208E+01   -.450E-01 -.684E+01 0.498E-02   -.835E-05 0.450E-03 -.113E-04
   0.193E+00 0.133E+03 -.208E+01   -.145E+00 -.140E+03 0.208E+01   -.450E-01 0.684E+01 0.498E-02   -.297E-04 -.445E-03 -.246E-04
   0.253E+02 -.792E+02 -.706E+02   -.287E+02 0.837E+02 0.738E+02   0.337E+01 -.452E+01 -.315E+01   -.157E-03 0.293E-03 0.246E-03
   0.253E+02 0.792E+02 -.706E+02   -.287E+02 -.837E+02 0.738E+02   0.337E+01 0.452E+01 -.315E+01   -.162E-03 -.264E-03 0.254E-03
   0.253E+02 -.792E+02 -.706E+02   -.287E+02 0.837E+02 0.738E+02   0.337E+01 -.452E+01 -.315E+01   -.205E-03 0.256E-03 0.220E-03
   0.253E+02 0.792E+02 -.706E+02   -.287E+02 -.837E+02 0.738E+02   0.337E+01 0.452E+01 -.315E+01   -.208E-03 -.289E-03 0.223E-03
   -.900E+02 0.598E+02 0.209E+02   0.959E+02 -.638E+02 -.219E+02   -.584E+01 0.395E+01 0.971E+00   0.394E-03 -.249E-03 -.388E-04
   -.900E+02 -.598E+02 0.209E+02   0.959E+02 0.638E+02 -.219E+02   -.584E+01 -.395E+01 0.971E+00   0.376E-03 0.274E-03 -.215E-04
   -.900E+02 0.598E+02 0.209E+02   0.959E+02 -.638E+02 -.219E+02   -.584E+01 0.395E+01 0.971E+00   0.312E-03 -.277E-03 -.490E-04
   -.900E+02 -.598E+02 0.209E+02   0.959E+02 0.638E+02 -.219E+02   -.584E+01 -.395E+01 0.971E+00   0.343E-03 0.258E-03 -.762E-04
   0.448E+02 0.406E+02 -.603E+02   -.474E+02 -.431E+02 0.655E+02   0.265E+01 0.242E+01 -.523E+01   -.227E-03 -.228E-03 0.511E-03
   0.448E+02 -.406E+02 -.603E+02   -.474E+02 0.431E+02 0.655E+02   0.265E+01 -.242E+01 -.523E+01   -.224E-03 0.228E-03 0.502E-03
   0.448E+02 0.406E+02 -.603E+02   -.474E+02 -.431E+02 0.655E+02   0.265E+01 0.242E+01 -.523E+01   -.251E-03 -.262E-03 0.479E-03
   0.448E+02 -.406E+02 -.603E+02   -.474E+02 0.431E+02 0.655E+02   0.265E+01 -.242E+01 -.523E+01   -.266E-03 0.262E-03 0.491E-03
   -.824E+00 0.458E+02 0.126E+02   0.553E+00 -.515E+02 -.136E+02   0.273E+00 0.570E+01 0.105E+01   -.176E-04 -.912E-04 -.514E-04
   -.824E+00 -.458E+02 0.126E+02   0.553E+00 0.515E+02 -.136E+02   0.273E+00 -.570E+01 0.105E+01   -.194E-04 0.877E-04 -.503E-04
   -.825E+00 0.458E+02 0.126E+02   0.554E+00 -.515E+02 -.136E+02   0.273E+00 0.570E+01 0.105E+01   -.169E-04 -.926E-04 -.486E-04
   -.825E+00 -.458E+02 0.126E+02   0.554E+00 0.515E+02 -.136E+02   0.273E+00 -.570E+01 0.105E+01   -.182E-04 0.967E-04 -.507E-04
   -.142E+02 -.184E+02 0.309E+02   0.167E+02 0.212E+02 -.354E+02   -.248E+01 -.275E+01 0.447E+01   0.118E-04 0.338E-04 -.815E-04
   -.142E+02 0.184E+02 0.309E+02   0.167E+02 -.212E+02 -.354E+02   -.248E+01 0.275E+01 0.447E+01   0.940E-05 -.312E-04 -.783E-04
   -.142E+02 -.184E+02 0.309E+02   0.167E+02 0.212E+02 -.354E+02   -.248E+01 -.275E+01 0.447E+01   0.107E-04 0.241E-04 -.777E-04
   -.142E+02 0.184E+02 0.309E+02   0.167E+02 -.212E+02 -.354E+02   -.248E+01 0.275E+01 0.447E+01   0.112E-04 -.274E-04 -.816E-04
   0.422E+02 -.819E+01 0.109E+01   -.477E+02 0.101E+02 -.552E+00   0.553E+01 -.193E+01 -.526E+00   -.996E-04 0.271E-04 -.217E-04
   0.422E+02 0.819E+01 0.109E+01   -.477E+02 -.101E+02 -.552E+00   0.553E+01 0.193E+01 -.526E+00   -.988E-04 -.255E-04 -.221E-04
   0.422E+02 -.819E+01 0.109E+01   -.477E+02 0.101E+02 -.552E+00   0.553E+01 -.193E+01 -.526E+00   -.909E-04 0.184E-04 -.177E-04
   0.422E+02 0.819E+01 0.109E+01   -.477E+02 -.101E+02 -.552E+00   0.553E+01 0.193E+01 -.526E+00   -.946E-04 -.200E-04 -.186E-04
[...]
   -.171E+02 -.334E+01 -.271E+02   0.203E+02 0.459E+01 0.319E+02   -.315E+01 -.125E+01 -.479E+01   0.239E-04 -.898E-05 0.770E-04
   -.171E+02 0.334E+01 -.271E+02   0.203E+02 -.459E+01 0.319E+02   -.315E+01 0.125E+01 -.479E+01   0.212E-04 0.819E-05 0.777E-04
   0.125E+02 0.470E+02 0.613E-01   -.127E+02 -.527E+02 -.590E+00   0.208E+00 0.577E+01 0.516E+00   -.190E-04 -.102E-03 0.205E-04
   0.125E+02 -.470E+02 0.613E-01   -.127E+02 0.527E+02 -.590E+00   0.208E+00 -.577E+01 0.516E+00   -.190E-04 0.103E-03 0.187E-04
   0.125E+02 0.470E+02 0.613E-01   -.127E+02 -.527E+02 -.590E+00   0.208E+00 0.577E+01 0.516E+00   -.248E-04 -.106E-03 0.137E-04
   0.125E+02 -.470E+02 0.612E-01   -.127E+02 0.527E+02 -.590E+00   0.208E+00 -.577E+01 0.516E+00   -.276E-04 0.107E-03 0.158E-04
   0.372E+02 -.138E+02 -.624E+01   -.426E+02 0.158E+02 0.674E+01   0.543E+01 -.206E+01 -.511E+00   -.900E-04 0.232E-04 0.338E-04
   0.372E+02 0.138E+02 -.624E+01   -.426E+02 -.158E+02 0.674E+01   0.543E+01 0.206E+01 -.511E+00   -.921E-04 -.234E-04 0.319E-04
   0.372E+02 -.138E+02 -.624E+01   -.426E+02 0.158E+02 0.674E+01   0.543E+01 -.206E+01 -.511E+00   -.939E-04 0.152E-04 0.299E-04
   0.372E+02 0.138E+02 -.624E+01   -.426E+02 -.158E+02 0.674E+01   0.543E+01 0.206E+01 -.511E+00   -.936E-04 -.153E-04 0.315E-04
   -.177E+02 -.554E+01 0.269E+01   0.196E+02 0.674E+01 -.249E+01   -.192E+01 -.122E+01 -.208E+00   0.403E-03 0.241E-03 0.148E-04
   -.177E+02 0.553E+01 0.269E+01   0.196E+02 -.674E+01 -.249E+01   -.192E+01 0.122E+01 -.208E+00   0.397E-03 -.233E-03 0.325E-05
   -.177E+02 -.554E+01 0.269E+01   0.196E+02 0.674E+01 -.249E+01   -.192E+01 -.122E+01 -.208E+00   0.360E-03 0.189E-03 -.161E-04
   -.177E+02 0.553E+01 0.269E+01   0.196E+02 -.674E+01 -.249E+01   -.192E+01 0.122E+01 -.208E+00   0.353E-03 -.201E-03 -.109E-04
   -.403E+02 -.653E-01 -.489E+02   -.643E-12 -.338E-12 0.130E-12   0.403E+02 0.600E-14 0.489E+02   0.454E-03 -.300E-05 0.350E-03

 POSITION                                       TOTAL-FORCE (eV/Angst)
      9.82728      2.12631      7.65521         0.001155     -0.001075     -0.001010
     12.07664      6.26229      3.85543         0.001161      0.001079     -0.001007
      2.65710      6.32061      7.61768         0.001161     -0.001079     -0.001007
      4.90646      2.06799      3.81790         0.001155      0.001075     -0.001010
      1.49897      1.19101      1.26037        -0.000922     -0.000590     -0.001143
     -0.75039      7.19759      5.06014        -0.000971      0.000608     -0.001182
      8.66915      5.38531      1.29790        -0.000971     -0.000608     -0.001182
      6.41979      3.00329      5.09768        -0.000922      0.000590     -0.001143
     -2.14966      4.33229      4.78025         0.002743     -0.002131      0.002792
      0.09970      4.05632      0.98047         0.002488      0.002279      0.003155
      5.02051      0.13798      4.81779         0.002488     -0.002279      0.003155
      7.26987      8.25062      1.01802         0.002743      0.002131      0.002792
     -2.97271      2.76414      6.16312         0.000248      0.002227     -0.002605
     -0.72335      5.62445      2.36334         0.000190     -0.001811     -0.002446
      4.19747      6.95845      6.20065         0.000190      0.001811     -0.002446
      6.44683      1.43016      2.40088         0.000248     -0.002227     -0.002605
     11.88034      8.15499      2.73238        -0.000625      0.000402     -0.000867
      9.63097      0.23362      6.53216        -0.000243     -0.000620     -0.001177
      4.71015      3.96068      2.69485        -0.000243      0.000620     -0.001177
      2.46080      4.42792      6.49462        -0.000625     -0.000402     -0.000867
     12.72476      1.40218      1.44933        -0.000937     -0.001099      0.002363
     10.47540      6.98642      5.24911        -0.000915      0.000862      0.002219
      5.55458      5.59648      1.41180        -0.000915     -0.000862      0.002219
      3.30522      2.79212      5.21157        -0.000937      0.001099      0.002363
      3.32449      1.14574      2.55219         0.002290     -0.001044      0.002004
      1.07513      7.24286      6.35197         0.002324      0.001053      0.002030
     10.49466      5.34005      2.58973         0.002324     -0.001053      0.002030
      8.24530      3.04856      6.38950         0.002290      0.001044      0.002004
      9.52861      2.35102      0.81232        -0.000095     -0.000229     -0.001405
      7.27925      6.03758      4.61210        -0.000104      0.000237     -0.001404
      2.35842      6.54533      0.77480        -0.000104     -0.000237     -0.001404
      0.10906      1.84327      4.57457        -0.000095      0.000229     -0.001405
      2.41470      1.76767      1.90856         0.001637      0.002297      0.000883
      0.16534      6.62093      5.70833         0.001657     -0.002369      0.000896
      9.58488      5.96197      1.94609         0.001657      0.002369      0.000896
      7.33552      2.42664      5.74586         0.001637     -0.002297      0.000883
     -2.85922      3.96274      5.76379         0.001689     -0.001468     -0.000585
     -0.60986      4.42586      1.96402         0.002002      0.000907     -0.001105
      4.31097      8.15705      5.80133         0.002002     -0.000907     -0.001105
      6.56033      0.23155      2.00155         0.001689      0.001468     -0.000585
     12.79252      0.25357      2.00852         0.001572      0.002597     -0.001351
     10.54316      8.13503      5.80830         0.001138     -0.002162     -0.000899
      5.62235      4.44788      1.97099         0.001138      0.002162     -0.000899
      3.37298      3.94073      5.77077         0.001572     -0.002597     -0.001351
      9.64515      2.01998      3.26400        -0.001058     -0.000973     -0.000061
      7.39579      6.36862      7.06377        -0.001064      0.000981     -0.000059
      2.47499      6.21427      3.22647        -0.001064     -0.000981     -0.000059
      0.22563      2.17433      7.02624        -0.001058      0.000973     -0.000061
      9.50524      1.27249      0.62764         0.000333      0.001126     -0.000528
      7.25588      7.11612      4.42742         0.000331     -0.001122     -0.000526
      2.33506      5.46678      0.59011         0.000331      0.001122     -0.000526
      0.08570      2.92182      4.38989         0.000333     -0.001126     -0.000528
      5.51864      2.87346      7.58493         0.001409      0.001127      0.000761
      7.76800      5.51514      3.78515         0.001412     -0.001135      0.000758
     -1.65153      7.06776      7.54739         0.001412      0.001135      0.000758
      0.59783      1.32084      3.74761         0.001409     -0.001127      0.000761
      8.50530      2.71660      0.92749        -0.000316     -0.002254      0.001654
      6.25594      5.67200      4.72727        -0.000319      0.002249      0.001651
      1.33513      6.91090      0.88996        -0.000319     -0.002249      0.001651
     -0.91423      1.47771      4.68973        -0.000316      0.002254      0.001654
[...]
     12.49454      6.12177      0.34512         0.001455     -0.000668     -0.000641
      3.07500      6.46114      4.10735         0.001455      0.000668     -0.000641
      5.32436      1.92747      0.30758         0.001456     -0.000666     -0.000633
      9.60014      0.93293      3.14811        -0.003945      0.000414     -0.001638
      7.35078      7.45567      6.94789        -0.003941     -0.000418     -0.001639
      2.42996      5.12724      3.11058        -0.003941      0.000418     -0.001639
      0.18060      3.26136      6.91035        -0.003945     -0.000414     -0.001638
      8.63317      2.42666      3.35106        -0.001159     -0.000367     -0.001107
      6.38381      5.96194      7.15083        -0.001156      0.000363     -0.001107
      1.46298      6.62096      3.31352        -0.001156     -0.000363     -0.001107
     -0.78638      1.76764      7.11330        -0.001159      0.000367     -0.001107
     10.28891      2.60585      2.06157        -0.000965      0.000574     -0.000562
      8.03955      5.78275      5.86135        -0.000918     -0.000540     -0.000568
      3.11873      6.80015      2.02403        -0.000918      0.000540     -0.000568
      0.86937      1.58845      5.82381        -0.000965     -0.000574     -0.000562
    total drift:                                0.008590     -0.065314      0.026849

  FREE ENERGIE OF THE ION-ELECTRON SYSTEM (eV)
  free  energy   TOTEN  =      -588.20758932 eV

  energy  without entropy=     -588.20758932  energy(sigma->0) =     -588.20758932

 total charge

[...]

 magnetization (x)

# of ion     s       p       d       tot
  1        0.023   0.021   4.608   4.652
  2       -0.023  -0.021  -4.608  -4.652
  3       -0.023  -0.021  -4.608  -4.652
  4        0.023   0.021   4.608   4.652
  5        0.003   0.012   0.000   0.016
  6       -0.003  -0.012   0.000  -0.016
  7       -0.003  -0.012   0.000  -0.016
  8        0.003   0.012   0.000   0.016
  9       -0.003  -0.008   0.000  -0.011
 10        0.003   0.008   0.000   0.011
 11        0.003   0.008   0.000   0.011
 12       -0.003  -0.008   0.000  -0.011
 13        0.003   0.008   0.000   0.011
 14       -0.003  -0.008   0.000  -0.011
 15       -0.003  -0.008   0.000  -0.011
 16        0.003   0.008   0.000   0.011
 17       -0.003  -0.007   0.000  -0.010
 18        0.003   0.007   0.000   0.010
 19        0.003   0.007   0.000   0.010
 20       -0.003  -0.007   0.000  -0.010
 21        0.003   0.007   0.000   0.010
 22       -0.003  -0.007   0.000  -0.010
 23       -0.003  -0.007   0.000  -0.010
 24        0.003   0.007   0.000   0.010
 25        0.003   0.012   0.000   0.015
 26       -0.003  -0.012   0.000  -0.015
 27       -0.003  -0.012   0.000  -0.015
 28        0.003   0.012   0.000   0.015
 29        0.000   0.000   0.000   0.000
 30       -0.000  -0.000   0.000  -0.000
 31       -0.000  -0.000   0.000  -0.000
 32        0.000   0.000   0.000   0.000
 33        0.001   0.005   0.000   0.007
 34       -0.001  -0.005   0.000  -0.007
 35       -0.001  -0.005   0.000  -0.007
 36        0.001   0.005   0.000   0.007
 37       -0.000  -0.000   0.000  -0.000
 38        0.000   0.000   0.000   0.000
 39        0.000   0.000   0.000   0.000
 40       -0.000  -0.000   0.000  -0.000
 41       -0.000  -0.001   0.000  -0.001
 42        0.000   0.001   0.000   0.001
 43        0.000   0.001   0.000   0.001
 44       -0.000  -0.001   0.000  -0.001
 45       -0.000   0.000   0.000   0.000
 46        0.000  -0.000   0.000  -0.000
 47        0.000  -0.000   0.000  -0.000
 48       -0.000   0.000   0.000   0.000
 49       -0.000   0.000   0.000  -0.000
 50        0.000  -0.000   0.000   0.000
 51        0.000  -0.000   0.000   0.000
 52       -0.000   0.000   0.000  -0.000
 53       -0.000   0.000   0.000  -0.000
 54        0.000  -0.000   0.000   0.000
 55        0.000  -0.000   0.000   0.000
 56       -0.000   0.000   0.000  -0.000
 57       -0.000   0.000   0.000   0.000
 58        0.000  -0.000   0.000  -0.000
 59        0.000  -0.000   0.000  -0.000
 60       -0.000   0.000   0.000   0.000
[...]
 82       -0.000   0.000   0.000  -0.000
 83       -0.000   0.000   0.000  -0.000
 84        0.000  -0.000   0.000   0.000
 85        0.000  -0.000   0.000   0.000
 86       -0.000   0.000   0.000  -0.000
 87       -0.000   0.000   0.000  -0.000
 88        0.000  -0.000   0.000   0.000
 89       -0.000   0.000   0.000   0.000
 90        0.000  -0.000   0.000  -0.000
 91        0.000  -0.000   0.000  -0.000
 92       -0.000   0.000   0.000   0.000
 93       -0.000  -0.000   0.000  -0.000
 94        0.000   0.000   0.000   0.000
 95        0.000   0.000   0.000   0.000
 96       -0.000  -0.000   0.000  -0.000
tot        0.000   0.000  -0.000  -0.000