 vasp.5.4.4.18Apr17-6-g9f103f2a35 (build Apr 27 2017 14:21:45) complex

 executed on      LinuxIFC_2017xe date 2022.03.19  14:41:01

 INCAR:
 POTCAR:    PAW_PBE Mg 13Apr2007
 POTCAR:   PAW_PBE O 08Apr2002
 POTCAR:   PAW_PBE C 08Apr2002
 POTCAR:   PAW_PBE H 15Jun2001
 POTCAR:   PAW_PBE N 08Apr2002

 POTCAR:    PAW_PBE Mg 13Apr2007
   VRHFIN =Mg: s2p0

   TITEL  = PAW_PBE Mg 13Apr2007
   POMASS =   24.305; ZVAL   =    2.000    mass and valenz
   ENMAX  =  126.143; ENMIN  =   94.607 eV

 POTCAR:   PAW_PBE O 08Apr2002
   VRHFIN =O: s2p4

   TITEL  = PAW_PBE O 08Apr2002
   POMASS =   16.000; ZVAL   =    6.000    mass and valenz
   ENMAX  =  400.000; ENMIN  =  300.000 eV
   QCUT   =   -5.520; QGAM   =   11.041    optimization parameters

   Description
     l     E      TYP  RCUT    TYP  RCUT
     0   .000     23  1.200
     0  -.700     23  1.200
     1   .000     23  1.520
     1   .600     23  1.520
     2   .000      7  1.500

 POTCAR:   PAW_PBE C 08Apr2002
   VRHFIN =C: s2p2

[...]

 POTCAR:   PAW_PBE H 15Jun2001
   VRHFIN =H: ultrasoft test

   TITEL  = PAW_PBE H 15Jun2001
   POMASS =    1.000; ZVAL   =    1.000    mass and valenz
   ENMAX  =  250.000; ENMIN  =  200.000 eV
   QCUT   =   -5.749; QGAM   =   11.498    optimization parameters

[...]

 POTCAR:   PAW_PBE N 08Apr2002
   VRHFIN =N: s2p3

   TITEL  = PAW_PBE N 08Apr2002
   POMASS =   14.001; ZVAL   =    5.000    mass and valenz
   ENMAX  =  400.000; ENMIN  =  300.000 eV
   QCUT   =   -5.562; QGAM   =   11.124    optimization parameters

   Description
     l     E      TYP  RCUT    TYP  RCUT
     0   .000     23  1.200
     0   .000     23  1.200
     1   .000     23  1.500
     1   .700     23  1.500
     2   .000      7  1.500

  PAW_PBE Mg 13Apr2007                  :
 PAW_PBE O 08Apr2002                    :
 PAW_PBE C 08Apr2002                    :
 PAW_PBE H 15Jun2001                    :
 PAW_PBE N 08Apr2002                    :

 POSCAR: C3 H3 Co O6, H5 N2
  positions in direct lattice
  velocities in cartesian coordinates
 exchange correlation table for  LEXCH =        8
   RHO(1)=    0.500       N(1)  =     2000
   RHO(2)=  100.500       N(2)  =     4000

 ion  position               nearest neighbor table
   1  0.546  0.500  0.512-  10 2.09  13 2.09  21 2.09  27 2.09  19 2.10   5 2.12
   2  0.454  0.500  0.012-   9 2.09  14 2.09  22 2.09  28 2.09  20 2.10   6 2.12
   3  0.046  0.000  0.512-  12 2.09  15 2.09  23 2.09  25 2.09  17 2.10   7 2.12
   4  0.954  1.000  0.012-  11 2.09  16 2.09  24 2.09  26 2.09  18 2.10   8 2.12
   5  0.571  0.644  0.669-  29 1.28   1 2.12
   6  0.429  0.356  0.169-  30 1.28   2 2.12
   7  0.071  0.856  0.669-  31 1.28   3 2.12
   8  0.929  0.144  0.169-  32 1.28   4 2.12
   9  0.501  0.635  0.858-  29 1.27   2 2.09
  10  0.499  0.365  0.358-  30 1.27   1 2.09
  11  0.001  0.865  0.858-  31 1.27   4 2.09
  12  0.999  0.135  0.358-  32 1.27   3 2.09
  13  0.445  0.726  0.446-  33 1.27   1 2.09
  14  0.555  0.274  0.946-  34 1.27   2 2.09
  15  0.945  0.774  0.446-  35 1.27   3 2.09
  16  0.055  0.226  0.946-  36 1.27   4 2.09
  17  0.250  0.913  0.440-  33 1.27   3 2.10
  18  0.750  0.087  0.940-  34 1.27   4 2.10
  19  0.750  0.587  0.440-  35 1.27   1 2.10
  20  0.250  0.413  0.940-  36 1.27   2 2.10
  21  0.339  0.418  0.581-  37 1.26   1 2.09
  22  0.661  0.582  0.081-  38 1.26   2 2.09
  23  0.839  0.082  0.581-  39 1.26   3 2.09
  24  0.161  0.918  0.081-  40 1.26   4 2.09
  25  0.145  0.229  0.577-  37 1.28   3 2.09
  26  0.855  0.771  0.077-  38 1.28   4 2.09
  27  0.645  0.271  0.577-  39 1.28   1 2.09
  28  0.355  0.729  0.077-  40 1.28   2 2.09
  29  0.542  0.562  0.763-  41 1.10   9 1.27   5 1.28
  30  0.458  0.438  0.263-  42 1.10  10 1.27   6 1.28
  31  0.042  0.938  0.763-  43 1.10  11 1.27   7 1.28
  32  0.958  0.062  0.263-  44 1.10  12 1.27   8 1.28
  33  0.324  0.789  0.487-  45 1.10  13 1.27  17 1.27
  34  0.676  0.211  0.987-  46 1.10  14 1.27  18 1.27
  35  0.824  0.711  0.487-  47 1.10  15 1.27  19 1.27
  36  0.176  0.289  0.987-  48 1.10  16 1.27  20 1.27
  37  0.282  0.271  0.556-  49 1.11  21 1.26  25 1.28
  38  0.718  0.729  0.056-  50 1.11  22 1.26  26 1.28
  39  0.782  0.229  0.556-  51 1.11  23 1.26  27 1.28
  40  0.218  0.771  0.056-  52 1.11  24 1.26  28 1.28
  41  0.552  0.418  0.762-  29 1.10
  42  0.448  0.582  0.262-  30 1.10
  43  0.052  0.082  0.762-  31 1.10
  44  0.948  0.918  0.262-  32 1.10
  45  0.280  0.733  0.569-  33 1.10
  46  0.720  0.267  0.069-  34 1.10
  47  0.780  0.767  0.569-  35 1.10
  48  0.220  0.233  0.069-  36 1.10
  49  0.354  0.172  0.513-  37 1.11
  50  0.646  0.828  0.013-  38 1.11
  51  0.854  0.328  0.513-  39 1.11
  52  0.146  0.672  0.013-  40 1.11
  53  0.088  0.409  0.673-  77 1.05
  54  0.912  0.591  0.173-  78 1.05
  55  0.588  0.091  0.673-  79 1.05
  56  0.412  0.909  0.173-  80 1.05
  57  0.084  0.630  0.702-  77 1.05
  58  0.916  0.370  0.202-  78 1.05
  59  0.584  0.870  0.702-  79 1.05
  60  0.416  0.130  0.202-  80 1.05
[...]
  66  0.071  0.609  0.346-  74 1.03
  67  0.429  0.109  0.846-  75 1.03
  68  0.571  0.891  0.346-  76 1.03
  69  0.909  0.605  0.832-  73 1.03
  70  0.091  0.395  0.332-  74 1.03
  71  0.409  0.895  0.832-  75 1.03
  72  0.591  0.105  0.332-  76 1.03
  73  0.922  0.490  0.786-  69 1.03  65 1.03  77 1.45
  74  0.078  0.510  0.286-  70 1.03  66 1.03  78 1.45
  75  0.422  0.010  0.786-  71 1.03  67 1.03  79 1.45
  76  0.578  0.990  0.286-  72 1.03  68 1.03  80 1.45
  77  0.073  0.503  0.738-  53 1.05  61 1.05  57 1.05  73 1.45
  78  0.927  0.497  0.238-  54 1.05  62 1.05  58 1.05  74 1.45
  79  0.573  0.997  0.738-  55 1.05  63 1.05  59 1.05  75 1.45
  80  0.427  0.003  0.238-  56 1.05  64 1.05  60 1.05  76 1.45

  LATTYP: Found a simple orthorhombic cell.
 ALAT       =     7.6343909808
 B/A-ratio  =     1.1611993166
 C/A-ratio  =     1.4992346324

  Lattice vectors:

 A1 = (   0.0000000000,  -7.6343909808,   0.0000000000)
 A2 = (  -8.8650495899,   0.0000000000,   0.0000000000)
 A3 = (   0.0000000000,   0.0000000000, -11.4457433555)

Analysis of symmetry for initial positions (statically):
 Subroutine PRICEL returns:
 Original cell was already a primitive cell.

 Routine SETGRP: Setting up the symmetry group for a
 simple orthorhombic supercell.

 Subroutine GETGRP returns: Found  4 space group operations
 (whereof  1 operations were pure point group operations)
 out of a pool of  8 trial point group operations.

The static configuration has the point symmetry C_1 .
 The point group associated with its full space group is C_2v.

Analysis of symmetry for dynamics (positions and initial velocities):
 Subroutine PRICEL returns:
 Original cell was already a primitive cell.

[...]

The dynamic configuration has the point symmetry C_1 .
 The point group associated with its full space group is C_2v.

Analysis of structural, dynamic, and magnetic symmetry:
 Subroutine PRICEL returns:
 Original cell was already a primitive cell.

 Routine SETGRP: Setting up the symmetry group for a
 simple orthorhombic supercell.

 Subroutine GETGRP returns: Found  4 space group operations
 (whereof  1 operations were pure point group operations)
 out of a pool of  8 trial point group operations.

The magnetic configuration has the point symmetry C_1 .
 The point group associated with its full space group is C_2v.

 Subroutine INISYM returns: Found  4 space group operations
 (whereof  1 operations are pure point group operations),
 and found     1 'primitive' translations

 KPOINTS: Automatic mesh

Automatic generation of k-mesh.
Space group operators:
 irot       det(A)        alpha          n_x          n_y          n_z        tau_x        tau_y        tau_z
    1     1.000000     0.000000     1.000000     0.000000     0.000000     0.000000     0.000000     0.000000
    2     1.000000   180.000000     0.000000     0.000000     1.000000     0.000000     0.000000    -0.500000
    3    -1.000000   180.000000     1.000000     0.000000     0.000000    -0.500000    -0.500000    -0.500000
    4    -1.000000   180.000000     0.000000     1.000000     0.000000    -0.500000    -0.500000     0.000000

 Subroutine IBZKPT returns following result:

 Found      4 irreducible k-points:

 Following reciprocal coordinates:
            Coordinates               Weight
  0.125000  0.125000  0.250000      8.000000
  0.375000  0.125000  0.250000      8.000000
  0.125000  0.375000  0.250000      8.000000
  0.375000  0.375000  0.250000      8.000000

 Following cartesian coordinates:
            Coordinates               Weight
  0.014100  0.016373  0.021842      8.000000
  0.042301  0.016373  0.021842      8.000000
  0.014100  0.049120  0.021842      8.000000
  0.042301  0.049120  0.021842      8.000000

 Subroutine IBZKPT_HF returns following result:

 Found     32 k-points in 1st BZ
 the following     32 k-points will be used (e.g. in the exchange kernel)
 Following reciprocal coordinates:   # in IRBZ
  0.125000  0.125000  0.250000    0.03125000   1 t-inv F
  0.375000  0.125000  0.250000    0.03125000   2 t-inv F
  0.125000  0.375000  0.250000    0.03125000   3 t-inv F
  0.375000  0.375000  0.250000    0.03125000   4 t-inv F
 -0.125000 -0.125000  0.250000    0.03125000   1 t-inv F
 -0.125000  0.125000  0.250000    0.03125000   1 t-inv F
  0.125000 -0.125000  0.250000    0.03125000   1 t-inv F
 -0.375000 -0.125000  0.250000    0.03125000   2 t-inv F
 -0.375000  0.125000  0.250000    0.03125000   2 t-inv F
  0.375000 -0.125000  0.250000    0.03125000   2 t-inv F
 -0.125000 -0.375000  0.250000    0.03125000   3 t-inv F
 -0.125000  0.375000  0.250000    0.03125000   3 t-inv F
  0.125000 -0.375000  0.250000    0.03125000   3 t-inv F
 -0.375000 -0.375000  0.250000    0.03125000   4 t-inv F
 -0.375000  0.375000  0.250000    0.03125000   4 t-inv F
  0.375000 -0.375000  0.250000    0.03125000   4 t-inv F
 -0.125000 -0.125000 -0.250000    0.03125000   1 t-inv T
  0.125000  0.125000 -0.250000    0.03125000   1 t-inv T
  0.125000 -0.125000 -0.250000    0.03125000   1 t-inv T
 -0.125000  0.125000 -0.250000    0.03125000   1 t-inv T
 -0.375000 -0.125000 -0.250000    0.03125000   2 t-inv T
  0.375000  0.125000 -0.250000    0.03125000   2 t-inv T
  0.375000 -0.125000 -0.250000    0.03125000   2 t-inv T
 -0.375000  0.125000 -0.250000    0.03125000   2 t-inv T
 -0.125000 -0.375000 -0.250000    0.03125000   3 t-inv T
  0.125000  0.375000 -0.250000    0.03125000   3 t-inv T
  0.125000 -0.375000 -0.250000    0.03125000   3 t-inv T
 -0.125000  0.375000 -0.250000    0.03125000   3 t-inv T
 -0.375000 -0.375000 -0.250000    0.03125000   4 t-inv T
  0.375000  0.375000 -0.250000    0.03125000   4 t-inv T
  0.375000 -0.375000 -0.250000    0.03125000   4 t-inv T
 -0.375000  0.375000 -0.250000    0.03125000   4 t-inv T

 SYSTEM =  Mg-MOF
 POSCAR =  C3 H3 Co O6, H5 N2

 Startparameter for this run:
   NWRITE =      2    write-flag & timer
   PREC   = high      normal or accurate (medium, high low for compatibility)
   ISTART =      0    job   : 0-new  1-cont  2-samecut
   ICHARG =      1    charge: 1-file 2-atom 10-const
   ISPIN  =      2    spin polarized calculation?
   LNONCOLLINEAR =      F non collinear calculations
   LSORBIT =      F    spin-orbit coupling
[...]
   0.337E+02 -.129E+03 -.483E+02   -.465E+02 0.169E+03 0.611E+02   0.128E+02 -.397E+02 -.128E+02   0.528E-04 0.396E-05 -.544E-05
   0.135E+03 0.256E+02 -.299E+02   -.174E+03 -.330E+02 0.390E+02   0.393E+02 0.745E+01 -.908E+01   0.302E-04 0.421E-05 0.412E-05
   -.135E+03 -.256E+02 -.299E+02   0.174E+03 0.330E+02 0.390E+02   -.393E+02 -.745E+01 -.908E+01   -.299E-04 -.420E-05 -.350E-05
   0.135E+03 -.256E+02 -.299E+02   -.174E+03 0.330E+02 0.390E+02   0.393E+02 -.745E+01 -.908E+01   0.304E-04 -.439E-05 0.417E-05
   -.135E+03 0.256E+02 -.299E+02   0.174E+03 -.330E+02 0.390E+02   -.393E+02 0.745E+01 -.908E+01   -.308E-04 0.441E-05 -.353E-05
   -.218E+02 0.117E+03 -.325E+01   0.223E+02 -.124E+03 0.316E+01   -.525E+00 0.732E+01 0.832E-01   0.218E-04 0.275E-04 -.104E-04
   0.218E+02 -.117E+03 -.325E+01   -.223E+02 0.124E+03 0.316E+01   0.525E+00 -.732E+01 0.832E-01   -.220E-04 -.276E-04 -.144E-04
   -.218E+02 -.117E+03 -.325E+01   0.223E+02 0.124E+03 0.316E+01   -.525E+00 -.732E+01 0.832E-01   0.218E-04 -.275E-04 -.103E-04
   0.218E+02 0.117E+03 -.325E+01   -.223E+02 -.124E+03 0.316E+01   0.525E+00 0.732E+01 0.832E-01   -.217E-04 0.275E-04 -.145E-04
   0.456E+02 0.415E+02 -.103E+03   -.481E+02 -.445E+02 0.109E+03   0.255E+01 0.293E+01 -.627E+01   0.202E-05 0.173E-04 0.125E-04
   -.456E+02 -.415E+02 -.103E+03   0.481E+02 0.445E+02 0.109E+03   -.255E+01 -.293E+01 -.627E+01   -.206E-05 -.173E-04 0.953E-05
   0.456E+02 -.415E+02 -.103E+03   -.481E+02 0.445E+02 0.109E+03   0.255E+01 -.293E+01 -.627E+01   0.227E-05 -.172E-04 0.126E-04
   -.456E+02 0.415E+02 -.103E+03   0.481E+02 -.445E+02 0.109E+03   -.255E+01 0.293E+01 -.627E+01   -.228E-05 0.172E-04 0.963E-05
   -.650E+02 0.865E+02 0.485E+02   0.692E+02 -.913E+02 -.518E+02   -.424E+01 0.478E+01 0.328E+01   -.584E-04 -.262E-04 0.158E-04
   0.650E+02 -.865E+02 0.485E+02   -.692E+02 0.913E+02 -.518E+02   0.424E+01 -.478E+01 0.328E+01   0.584E-04 0.261E-04 0.112E-04
   -.650E+02 -.865E+02 0.485E+02   0.692E+02 0.913E+02 -.518E+02   -.424E+01 -.478E+01 0.328E+01   -.582E-04 0.260E-04 0.158E-04
   0.650E+02 0.865E+02 0.485E+02   -.692E+02 -.913E+02 -.518E+02   0.424E+01 0.478E+01 0.328E+01   0.581E-04 -.260E-04 0.112E-04
   -.674E+01 0.502E+02 0.493E+00   0.726E+01 -.560E+02 -.534E+00   -.525E+00 0.581E+01 0.418E-01   0.163E-05 -.903E-05 0.103E-05
   0.674E+01 -.502E+02 0.494E+00   -.726E+01 0.560E+02 -.534E+00   0.525E+00 -.581E+01 0.418E-01   -.168E-05 0.905E-05 0.428E-07
   -.674E+01 -.502E+02 0.493E+00   0.726E+01 0.560E+02 -.534E+00   -.525E+00 -.581E+01 0.418E-01   0.164E-05 0.899E-05 0.106E-05
   0.674E+01 0.502E+02 0.494E+00   -.726E+01 -.560E+02 -.534E+00   0.525E+00 0.581E+01 0.418E-01   -.160E-05 -.904E-05 0.337E-07
   0.177E+02 0.183E+02 -.448E+02   -.197E+02 -.205E+02 0.498E+02   0.203E+01 0.227E+01 -.499E+01   -.918E-05 -.817E-05 0.149E-04
   -.177E+02 -.183E+02 -.448E+02   0.197E+02 0.205E+02 0.498E+02   -.203E+01 -.227E+01 -.499E+01   0.917E-05 0.815E-05 0.137E-04
   0.177E+02 -.183E+02 -.448E+02   -.197E+02 0.205E+02 0.498E+02   0.203E+01 -.227E+01 -.499E+01   -.912E-05 0.820E-05 0.149E-04
   -.177E+02 0.183E+02 -.448E+02   0.197E+02 -.205E+02 0.498E+02   -.203E+01 0.227E+01 -.499E+01   0.908E-05 -.818E-05 0.137E-04
   -.318E+02 0.350E+02 0.201E+02   0.351E+02 -.389E+02 -.227E+02   -.333E+01 0.395E+01 0.261E+01   0.575E-05 -.151E-04 -.562E-05
   0.318E+02 -.350E+02 0.201E+02   -.351E+02 0.389E+02 -.227E+02   0.333E+01 -.395E+01 0.261E+01   -.572E-05 0.151E-04 -.649E-05
   -.318E+02 -.350E+02 0.201E+02   0.351E+02 0.389E+02 -.227E+02   -.333E+01 -.395E+01 0.261E+01   0.579E-05 0.151E-04 -.561E-05
   0.318E+02 0.350E+02 0.201E+02   -.351E+02 -.389E+02 -.227E+02   0.333E+01 0.395E+01 0.261E+01   -.574E-05 -.151E-04 -.647E-05
   -.776E-01 0.275E+02 0.350E+02   0.101E+01 -.323E+02 -.400E+02   -.929E+00 0.477E+01 0.497E+01   0.778E-05 0.140E-04 -.559E-05
   0.776E-01 -.275E+02 0.350E+02   -.101E+01 0.323E+02 -.400E+02   0.929E+00 -.477E+01 0.497E+01   -.775E-05 -.140E-04 -.691E-05
   -.776E-01 -.275E+02 0.350E+02   0.101E+01 0.323E+02 -.400E+02   -.929E+00 -.477E+01 0.497E+01   0.780E-05 -.140E-04 -.560E-05
   0.776E-01 0.275E+02 0.350E+02   -.101E+01 -.323E+02 -.400E+02   0.929E+00 0.477E+01 0.497E+01   -.786E-05 0.140E-04 -.693E-05
   -.133E+02 -.342E+02 0.256E+02   0.138E+02 0.404E+02 -.282E+02   -.583E+00 -.620E+01 0.263E+01   0.749E-05 -.105E-04 -.106E-04
   0.133E+02 0.342E+02 0.256E+02   -.138E+02 -.404E+02 -.282E+02   0.583E+00 0.620E+01 0.263E+01   -.746E-05 0.105E-04 -.118E-04
   -.133E+02 0.342E+02 0.256E+02   0.138E+02 -.404E+02 -.282E+02   -.583E+00 0.620E+01 0.263E+01   0.751E-05 0.105E-04 -.106E-04
   0.133E+02 -.342E+02 0.256E+02   -.138E+02 0.404E+02 -.282E+02   0.583E+00 -.620E+01 0.263E+01   -.757E-05 -.105E-04 -.118E-04
[...]
   0.162E+02 -.375E+02 -.352E+02   -.159E+02 0.430E+02 0.400E+02   -.272E+00 -.547E+01 -.479E+01   0.765E-05 0.165E-04 0.277E-04
   -.162E+02 0.375E+02 -.352E+02   0.159E+02 -.430E+02 0.400E+02   0.272E+00 0.547E+01 -.479E+01   -.765E-05 -.165E-04 0.273E-04
   0.237E+02 -.421E+02 -.332E+02   -.247E+02 0.484E+02 0.368E+02   0.102E+01 -.624E+01 -.360E+01   0.261E-05 0.206E-04 0.160E-04
   -.237E+02 0.421E+02 -.332E+02   0.247E+02 -.484E+02 0.368E+02   -.102E+01 0.624E+01 -.360E+01   -.253E-05 -.206E-04 0.155E-04
   0.237E+02 0.421E+02 -.332E+02   -.247E+02 -.484E+02 0.368E+02   0.102E+01 0.624E+01 -.360E+01   0.254E-05 -.205E-04 0.160E-04
   -.237E+02 -.421E+02 -.332E+02   0.247E+02 0.484E+02 0.368E+02   -.102E+01 -.624E+01 -.360E+01   -.253E-05 0.206E-04 0.155E-04
   0.141E+03 0.160E+02 -.851E+00   -.168E+03 -.209E+02 -.167E+02   0.269E+02 0.486E+01 0.176E+02   0.801E-04 0.621E-04 0.228E-04
   -.141E+03 -.160E+02 -.850E+00   0.168E+03 0.209E+02 -.167E+02   -.269E+02 -.486E+01 0.176E+02   -.799E-04 -.622E-04 0.183E-04
   0.141E+03 -.160E+02 -.851E+00   -.168E+03 0.209E+02 -.167E+02   0.269E+02 -.486E+01 0.176E+02   0.798E-04 -.621E-04 0.228E-04
   -.141E+03 0.160E+02 -.850E+00   0.168E+03 -.209E+02 -.167E+02   -.269E+02 0.486E+01 0.176E+02   -.799E-04 0.622E-04 0.184E-04
   -.595E+02 -.429E+01 0.414E+02   0.640E+02 0.470E+01 -.438E+02   -.450E+01 -.407E+00 0.239E+01   0.104E-03 0.280E-04 -.174E-03
   0.595E+02 0.429E+01 0.414E+02   -.640E+02 -.470E+01 -.438E+02   0.450E+01 0.407E+00 0.239E+01   -.104E-03 -.280E-04 -.180E-03
   -.595E+02 0.429E+01 0.414E+02   0.640E+02 -.470E+01 -.438E+02   -.450E+01 0.407E+00 0.239E+01   0.104E-03 -.279E-04 -.175E-03
   0.595E+02 -.429E+01 0.414E+02   -.640E+02 0.470E+01 -.438E+02   0.450E+01 -.407E+00 0.239E+01   -.104E-03 0.281E-04 -.180E-03
   -.187E-02 -.364E-03 -.104E+03   0.142E-12 0.560E-13 -.149E-12   0.000E+00 -.888E-15 0.104E+03   0.915E-07 -.350E-07 -.112E-03

 POSITION                                       TOTAL-FORCE (eV/Angst)
      4.83655      3.81482      5.86282         0.000091      0.000016      0.000159
      4.02850      3.81957      0.13995        -0.000091     -0.000016      0.000159
      0.40403      0.00237      5.86282         0.000091     -0.000016      0.000159
      8.46102      7.63202      0.13995        -0.000091      0.000016      0.000159
      5.06269      4.91608      7.65734         0.001469      0.000113     -0.000892
      3.80236      2.71831      1.93447        -0.001469     -0.000113     -0.000892
      0.63016      6.53550      7.65734         0.001469     -0.000113     -0.000892
      8.23489      1.09889      1.93447        -0.001469      0.000113     -0.000892
      4.44423      4.84859      9.81655        -0.001038     -0.000587     -0.000214
      4.42082      2.78580      4.09368         0.001038      0.000587     -0.000214
      0.01170      6.60299      9.81655        -0.001038      0.000587     -0.000214
      8.85335      1.03140      4.09368         0.001038     -0.000587     -0.000214
      3.94550      5.54470      5.09910         0.002879      0.000467      0.000253
      4.91955      2.08969     10.82197        -0.002879     -0.000467      0.000253
      8.37802      5.90688      5.09910         0.002879     -0.000467      0.000253
      0.48702      1.72751     10.82197        -0.002879      0.000467      0.000253
      2.21196      6.97134      5.03658         0.001059     -0.003161      0.001011
      6.65309      0.66305     10.75945        -0.001059      0.003161      0.001011
      6.64448      4.48025      5.03658         0.001059      0.003161      0.001011
      2.22057      3.15414     10.75945        -0.001059     -0.003161      0.001011
      3.00330      3.19143      6.65205         0.000753     -0.000103     -0.000582
      5.86175      4.44296      0.92918        -0.000753      0.000103     -0.000582
      7.43582      0.62577      6.65205         0.000753      0.000103     -0.000582
      1.42923      7.00863      0.92918        -0.000753     -0.000103     -0.000582
      1.28589      1.75029      6.60378         0.001298      0.000615     -0.000590
      7.57916      5.88410      0.88091        -0.001298     -0.000615     -0.000590
      5.71841      2.06690      6.60378         0.001298     -0.000615     -0.000590
      3.14664      5.56749      0.88091        -0.001298      0.000615     -0.000590
      4.80184      4.29162      8.73798        -0.000031      0.001339     -0.000085
      4.06321      3.34277      3.01510         0.000031     -0.001339     -0.000085
      0.36931      7.15997      8.73798        -0.000031     -0.001339     -0.000085
      8.49574      0.47442      3.01510         0.000031      0.001339     -0.000085
      2.87488      6.02424      5.57299         0.000046      0.000262     -0.000234
      5.99017      1.61015     11.29586        -0.000046     -0.000262     -0.000234
      7.30741      5.42735      5.57299         0.000046     -0.000262     -0.000234
      1.55764      2.20704     11.29586        -0.000046      0.000262     -0.000234
      2.49885      2.06996      6.36676        -0.001631     -0.000643      0.000232
      6.36620      5.56443      0.64388         0.001631      0.000643      0.000232
      6.93138      1.74723      6.36676        -0.001631      0.000643      0.000232
      1.93367      5.88716      0.64388         0.001631     -0.000643      0.000232
      4.89629      3.19152      8.72399         0.000201     -0.000580      0.000091
      3.96876      4.44287      3.00111        -0.000201      0.000580      0.000091
      0.46377      0.62568      8.72399         0.000201      0.000580      0.000091
      8.40128      7.00871      3.00111        -0.000201     -0.000580      0.000091
      2.48630      5.59745      6.51417         0.000116     -0.000226     -0.000090
      6.37875      2.03694      0.79130        -0.000116      0.000226     -0.000090
      6.91882      5.85414      6.51417         0.000116      0.000226     -0.000090
      1.94623      1.78025      0.79130        -0.000116     -0.000226     -0.000090
      3.13597      1.31533      5.87012        -0.000451      0.000173      0.000110
      5.72908      6.31906      0.14724         0.000451     -0.000173      0.000110
      7.56850      2.50186      5.87012        -0.000451     -0.000173      0.000110
      1.29655      5.13253      0.14724         0.000451      0.000173      0.000110
      0.78196      3.12242      7.70065        -0.000157     -0.000122     -0.000279
      8.08309      4.51197      1.97778         0.000157      0.000122     -0.000279
      5.21448      0.69477      7.70065        -0.000157      0.000122     -0.000279
      3.65057      6.93962      1.97778         0.000157     -0.000122     -0.000279
      0.74082      4.80867      8.04044         0.000236     -0.000040     -0.000032
      8.12423      2.82572      2.31757        -0.000236      0.000040     -0.000032
      5.17334      6.64292      8.04044         0.000236      0.000040     -0.000032
      3.69171      0.99147      2.31757        -0.000236     -0.000040     -0.000032
[...]
      0.63142      4.65248      3.96569         0.000073      0.000248      0.000339
      3.80111      0.83528      9.68856        -0.000073      0.000248      0.000339
      5.06394      6.79911      3.96569         0.000073     -0.000248      0.000339
      8.05474      4.61991      9.52485        -0.000183     -0.000251      0.000367
      0.81031      3.01448      3.80198         0.000183      0.000251      0.000367
      3.62222      6.83168      9.52485        -0.000183      0.000251      0.000367
      5.24283      0.80271      3.80198         0.000183     -0.000251      0.000367
      8.17186      3.74345      8.99736         0.002443      0.001593     -0.000799
      0.69318      3.89094      3.27449        -0.002443     -0.001593     -0.000799
      3.73934      0.07375      8.99736         0.002443     -0.001593     -0.000799
      5.12571      7.56064      3.27449        -0.002443      0.001593     -0.000799
      0.64745      3.84252      8.44958        -0.001526      0.002105      0.001336
      8.21760      3.79187      2.72671         0.001526     -0.002105      0.001336
      5.07997      7.60907      8.44958        -0.001526     -0.002105      0.001336
      3.78508      0.02532      2.72671         0.001526      0.002105      0.001336
    total drift:                               -0.001868     -0.000364      0.002182

  FREE ENERGIE OF THE ION-ELECTRON SYSTEM (eV)
  free  energy   TOTEN  =      -487.48800516 eV

  energy  without entropy=     -487.48800516  energy(sigma->0) =     -487.48800516

 total charge

[...]

 magnetization (x)

# of ion       s       p       d       tot
    1        0.000  -0.000   0.000   0.000
    2        0.000  -0.000   0.000   0.000
    3        0.000  -0.000   0.000   0.000
    4        0.000  -0.000   0.000   0.000
    5        0.000   0.000   0.000   0.000
    6        0.000   0.000   0.000   0.000
    7        0.000   0.000   0.000   0.000
    8        0.000   0.000   0.000   0.000
    9        0.000   0.000   0.000   0.000
   10        0.000   0.000   0.000   0.000
   11        0.000   0.000   0.000   0.000
   12        0.000   0.000   0.000   0.000
   13        0.000   0.000   0.000   0.000
   14        0.000   0.000   0.000   0.000
   15        0.000   0.000   0.000   0.000
   16        0.000   0.000   0.000   0.000
   17        0.000   0.000   0.000   0.000
   18        0.000   0.000   0.000   0.000
   19        0.000   0.000   0.000   0.000
   20        0.000   0.000   0.000   0.000
   21       -0.000  -0.000   0.000  -0.000
   22       -0.000  -0.000   0.000  -0.000
   23       -0.000  -0.000   0.000  -0.000
   24       -0.000  -0.000   0.000  -0.000
   25       -0.000  -0.000   0.000  -0.000
   26       -0.000  -0.000   0.000  -0.000
   27       -0.000  -0.000   0.000  -0.000
   28       -0.000  -0.000   0.000  -0.000
   29       -0.000   0.000   0.000  -0.000
   30       -0.000   0.000   0.000  -0.000
   31       -0.000   0.000   0.000  -0.000
   32       -0.000   0.000   0.000  -0.000
   33       -0.000  -0.000   0.000  -0.000
   34       -0.000  -0.000   0.000  -0.000
   35       -0.000  -0.000   0.000  -0.000
   36       -0.000  -0.000   0.000  -0.000
   37       -0.000   0.000   0.000  -0.000
   38       -0.000   0.000   0.000  -0.000
   39       -0.000   0.000   0.000  -0.000
   40       -0.000   0.000   0.000  -0.000
   41        0.000   0.000   0.000   0.000
   42        0.000   0.000   0.000   0.000
   43        0.000   0.000   0.000   0.000
   44        0.000   0.000   0.000   0.000
   45        0.000   0.000   0.000   0.000
   46        0.000   0.000   0.000   0.000
   47        0.000   0.000   0.000   0.000
   48        0.000   0.000   0.000   0.000
   49        0.000   0.000   0.000   0.000
   50        0.000   0.000   0.000   0.000
   51        0.000   0.000   0.000   0.000
   52        0.000   0.000   0.000   0.000
   53        0.000  -0.000   0.000   0.000
   54        0.000  -0.000   0.000   0.000
   55        0.000  -0.000   0.000   0.000
   56        0.000  -0.000   0.000   0.000
   57        0.000   0.000   0.000   0.000
   58        0.000   0.000   0.000   0.000
   59        0.000   0.000   0.000   0.000
   60        0.000   0.000   0.000   0.000
[...]
   66        0.000   0.000   0.000   0.000
   67        0.000   0.000   0.000   0.000
   68        0.000   0.000   0.000   0.000
   69        0.000   0.000   0.000   0.000
   70        0.000   0.000   0.000   0.000
   71        0.000   0.000   0.000   0.000
   72        0.000   0.000   0.000   0.000
   73        0.000  -0.000   0.000  -0.000
   74        0.000  -0.000   0.000  -0.000
   75        0.000  -0.000   0.000  -0.000
   76        0.000  -0.000   0.000  -0.000
   77       -0.000  -0.000   0.000  -0.000
   78       -0.000  -0.000   0.000  -0.000
   79       -0.000  -0.000   0.000  -0.000
   80       -0.000  -0.000   0.000  -0.000
tot          0.000  -0.000   0.000   0.000