 vasp.6.3.0 20Jan22 (build Feb 18 2022 09:23:16) complex

 INCAR:
   AMIX = 0.1
   IVDW = 11           (DFT-D3 method of method with no damping)
   ISPIN = 2 (Spin polarised DFT)
   ISTART = 1            (Read existing wavefunction
   ICHARG = 11         (Non-self-consistent: GGA/LDA band structures)
   LORBIT = 11
   LASPH = T
   GGA_COMPAT = .FALSE.
   LREAL = .FALSE.       (Projection operators: automatic)
   ENCUT = 850.0      (Cut-off energy for plane wave basis set, in eV)
   ENAUG = 1500.0
   PREC = Accurate     (Precision level)
   LMAXMIX = 4
   LWAVE = F
   LCHARG = F
   ADDGRID = .TRUE.        (Increase grid
   LPLANE = .TRUE.      (Real space distribution
   NWRITE = 2           (Medium-level output)
   KPAR = 2           (Divides k-grid into separate groups)
   NSW = 0          (number of ionic steps)
   ISMEAR = 0            (gaussian smearing method )
   SIGMA = 0.05         (please check the width of the smearing)
   IBRION = -1            (Algorithm: 0-MD
   POTIM = 0.1
   ISIF = 3            (optimize atomic coordinates and lattice parameters)
   EDIFFG = -0.005       (Ionic convergence
   EDIFF = 1.0d-10
   NELM = 50
   NELMIN = 6
   NELMDL = -8
   ALGO = Normal
   MAGMOM = 4 -4 4 -4   88*0
   LCALCPOL = T

 POTCAR:    PAW_PBE Ni 02Aug2007
 POTCAR:    PAW_PBE C 08Apr2002
 POTCAR:    PAW_PBE H 15Jun2001
 POTCAR:    PAW_PBE N 08Apr2002
 POTCAR:    PAW_PBE O 08Apr2002
|           W    W    AA    RRRRR   N    N  II  N    N   GGGG   !!!           |
|           W    W   A  A   R    R  NN   N  II  NN   N  G    G  !!!           |
|           W    W  A    A  R    R  N N  N  II  N N  N  G       !!!           |
|           W WW W  AAAAAA  RRRRR   N  N N  II  N  N N  G  GGG   !            |
|           WW  WW  A    A  R   R   N   NN  II  N   NN  G    G                |
|           W    W  A    A  R    R  N    N  II  N    N   GGGG   !!!           |
|     For optimal performance we recommend to set                             |
|       NCORE = 2 up to number-of-cores-per-socket                            |
|     This setting can greatly improve the performance of VASP for DFT.       |
|     The default, NCORE=1 might be grossly inefficient on modern             |
|     multi-core architectures or massively parallel machines. Do your        |
|     Unfortunately you need to use the default for GW and RPA                |
|     calculations (for HF NCORE is supported but not extensively tested      |
|     yet).                                                                   |

   TITEL  = PAW_PBE Ni 02Aug2007
   POMASS =   58.690; ZVAL   =   10.000    mass and valenz
   ENMAX  =  269.532; ENMIN  =  202.149 eV

   TITEL  = PAW_PBE C 08Apr2002
   POMASS =   12.011; ZVAL   =    4.000    mass and valenz
   ENMAX  =  400.000; ENMIN  =  300.000 eV

   TITEL  = PAW_PBE H 15Jun2001
   POMASS =    1.000; ZVAL   =    1.000    mass and valenz
   ENMAX  =  250.000; ENMIN  =  200.000 eV

[...]

   TITEL  = PAW_PBE O 08Apr2002
   POMASS =   16.000; ZVAL   =    6.000    mass and valenz
   ENMAX  =  400.000; ENMIN  =  300.000 eV

  PAW_PBE Ni 02Aug2007                  :
  PAW_PBE C 08Apr2002                   :
  PAW_PBE H 15Jun2001                   :
  PAW_PBE N 08Apr2002                   :
  PAW_PBE O 08Apr2002                   :

 POSCAR: crystal
  positions in direct lattice
  velocities in cartesian coordinates
 exchange correlation table for  LEXCH =        8
   RHO(1)=    0.500       N(1)  =     2000
   RHO(2)=  100.500       N(2)  =     4000

 ion  position               nearest neighbor table
   1  0.262  0.250  0.250-  77 2.08  79 2.08  69 2.09  71 2.09  90 2.10  92 2.10
   2  0.238  0.750  0.250-  78 2.08  80 2.08  70 2.09  72 2.09  89 2.10  91 2.10
   3  0.738  0.750  0.750-  81 2.08  83 2.08  73 2.09  75 2.09  86 2.10  88 2.10
   4  0.762  0.250  0.750-  84 2.08  82 2.08  74 2.09  76 2.09  85 2.10  87 2.10
   5  0.250  0.500  0.303-  21 1.10  69 1.27  70 1.27
   6  0.250  0.000  0.197-  22 1.10  71 1.27  72 1.27
   7  0.750  0.500  0.697-  23 1.10  73 1.27  74 1.27
   8  0.750  0.000  0.803-  24 1.10  75 1.27  76 1.27
   9  0.532  0.222  0.484-  41 1.11  77 1.27  85 1.27
  10  0.968  0.778  0.484-  42 1.11  78 1.27  86 1.27
  11  0.532  0.278  0.016-  43 1.11  79 1.27  87 1.27
  12  0.968  0.722  0.016-  44 1.11  80 1.27  88 1.27
  13  0.468  0.778  0.516-  45 1.11  81 1.27  89 1.27
  14  0.032  0.222  0.516-  46 1.11  82 1.27  90 1.27
  15  0.468  0.722  0.984-  47 1.11  83 1.27  91 1.27
  16  0.032  0.278  0.984-  48 1.11  84 1.27  92 1.27
  17  0.250  0.500  0.759-  65 1.33  58 1.34  57 1.34
  18  0.250  0.000  0.741-  66 1.33  60 1.34  59 1.34
  19  0.750  0.500  0.241-  67 1.33  62 1.34  61 1.34
  20  0.750  0.000  0.259-  68 1.33  64 1.34  63 1.34
  21  0.250  0.500  0.180-   5 1.10
  22  0.250  0.000  0.320-   6 1.10
  23  0.750  0.500  0.820-   7 1.10
  24  0.750  0.000  0.680-   8 1.10
  25  0.428  0.379  0.743-  57 1.02
  26  0.072  0.621  0.743-  58 1.02
  27  0.428  0.121  0.757-  59 1.02
  28  0.072  0.879  0.757-  60 1.02
  29  0.572  0.621  0.257-  61 1.02
  30  0.928  0.379  0.257-  62 1.02
  31  0.572  0.879  0.243-  63 1.02
  32  0.928  0.121  0.243-  64 1.02
  33  0.333  0.418  0.570-  57 1.03
  34  0.167  0.582  0.570-  58 1.03
  35  0.333  0.082  0.930-  59 1.03
  36  0.167  0.918  0.930-  60 1.03
  37  0.667  0.582  0.430-  61 1.03
  38  0.833  0.418  0.430-  62 1.03
  39  0.667  0.918  0.070-  63 1.03
  40  0.833  0.082  0.070-  64 1.03
  41  0.603  0.291  0.430-   9 1.11
  42  0.897  0.709  0.430-  10 1.11
  43  0.603  0.209  0.070-  11 1.11
  44  0.897  0.791  0.070-  12 1.11
  45  0.397  0.709  0.570-  13 1.11
  46  0.103  0.291  0.570-  14 1.11
  47  0.397  0.791  0.930-  15 1.11
  48  0.103  0.209  0.930-  16 1.11
  49  0.186  0.561  0.967-  65 1.03
  50  0.314  0.439  0.967-  65 1.03
  51  0.186  0.939  0.533-  66 1.03
  52  0.314  0.061  0.533-  66 1.03
  53  0.814  0.439  0.033-  67 1.03
  54  0.686  0.561  0.033-  67 1.03
  55  0.814  0.061  0.467-  68 1.03
  56  0.686  0.939  0.467-  68 1.03
  57  0.346  0.427  0.684-  25 1.02  33 1.03  17 1.34
  58  0.154  0.573  0.684-  26 1.02  34 1.03  17 1.34
  59  0.346  0.073  0.816-  27 1.02  35 1.03  18 1.34
  60  0.154  0.927  0.816-  28 1.02  36 1.03  18 1.34
[...]
  78  0.087  0.821  0.413-  10 1.27   2 2.08
  79  0.413  0.321  0.087-  11 1.27   1 2.08
  80  0.087  0.679  0.087-  12 1.27   2 2.08
  81  0.587  0.821  0.587-  13 1.27   3 2.08
  82  0.913  0.179  0.587-  14 1.27   4 2.08
  83  0.587  0.679  0.913-  15 1.27   3 2.08
  84  0.913  0.321  0.913-  16 1.27   4 2.08
  85  0.572  0.189  0.615-   9 1.27   4 2.10
  86  0.928  0.811  0.615-  10 1.27   3 2.10
  87  0.572  0.311  0.885-  11 1.27   4 2.10
  88  0.928  0.689  0.885-  12 1.27   3 2.10
  89  0.428  0.811  0.385-  13 1.27   2 2.10
  90  0.072  0.189  0.385-  14 1.27   1 2.10
  91  0.428  0.689  0.115-  15 1.27   2 2.10
  92  0.072  0.311  0.115-  16 1.27   1 2.10

  LATTYP: Found a simple orthorhombic cell.
 ALAT       =     8.2381763937
 B/A-ratio  =     1.0813707444
 C/A-ratio  =     1.4114019979

  Lattice vectors:

 A1 = (  -8.2381763937,   0.0000000000,   0.0000000000)
 A2 = (   0.0000000000,   0.0000000000,   8.9085229390)
 A3 = (   0.0000000000,  11.6273786208,   0.0000000000)

Analysis of symmetry for initial positions (statically):
 Subroutine PRICEL returns:
 Original cell was already a primitive cell.

 Routine SETGRP: Setting up the symmetry group for a
 simple orthorhombic supercell.

 Subroutine GETGRP returns: Found  8 space group operations
 (whereof  2 operations were pure point group operations)
 out of a pool of  8 trial point group operations.

The static configuration has the point symmetry S_2 .
 The point group associated with its full space group is D_2h.

Analysis of symmetry for dynamics (positions and initial velocities):
 Subroutine PRICEL returns:
 Original cell was already a primitive cell.

[...]

The dynamic configuration has the point symmetry S_2 .
 The point group associated with its full space group is D_2h.

Analysis of structural, dynamic, and magnetic symmetry:
 Subroutine PRICEL returns:
 Original cell was already a primitive cell.

 Routine SETGRP: Setting up the symmetry group for a
 simple orthorhombic supercell.

 Subroutine GETGRP returns: Found  8 space group operations
 (whereof  2 operations were pure point group operations)
 out of a pool of  8 trial point group operations.

The overall configuration has the point symmetry S_2 .
 The point group associated with its full space group is D_2h.

 Subroutine INISYM returns: Found  8 space group operations
 (whereof  2 operations are pure point group operations),
 and found     1 'primitive' translations

                                     Primitive cell

  volume of cell :     853.3331

  direct lattice vectors                    reciprocal lattice vectors
     8.238176394  0.000000000 -0.000000000     0.121386087 -0.000000000  0.000000000
     0.000000000 11.627378621  0.000000000    -0.000000000  0.086003908 -0.000000000
    -0.000000000  0.000000000  8.908522939     0.000000000 -0.000000000  0.112252054

  length of vectors
     8.238176394 11.627378621  8.908522939     0.121386087  0.086003908  0.112252054

  position of ions in fractional coordinates (direct lattice)
     0.262369187  0.250000000  0.250000000
     0.237630813  0.750000000  0.250000000
     0.737630813  0.750000000  0.750000000
     0.762369187  0.250000000  0.750000000
     0.250000000  0.500000000  0.302738386
     0.250000000  0.000000000  0.197261614
     0.750000000  0.500000000  0.697261614
     0.750000000  0.000000000  0.802738386
     0.531761288  0.221847635  0.483938031
     0.968238712  0.778152365  0.483938031
     0.531761288  0.278152365  0.016061969
     0.968238712  0.721847635  0.016061969
     0.468238712  0.778152365  0.516061969
     0.031761288  0.221847635  0.516061969
     0.468238712  0.721847635  0.983938031
     0.031761288  0.278152365  0.983938031
     0.250000000  0.500000000  0.758909190
     0.250000000  0.000000000  0.741090810
     0.750000000  0.500000000  0.241090810
     0.750000000  0.000000000  0.258909190
     0.250000000  0.500000000  0.179750338
     0.250000000  0.000000000  0.320249662
     0.750000000  0.500000000  0.820249662
     0.750000000  0.000000000  0.679750338
     0.428497355  0.378874061  0.743076945
     0.071502645  0.621125939  0.743076945
     0.428497355  0.121125939  0.756923055
     0.071502645  0.878874061  0.756923055
     0.571502645  0.621125939  0.256923055
     0.928497355  0.378874061  0.256923055
     0.571502645  0.878874061  0.243076945
     0.928497355  0.121125939  0.243076945
     0.332681091  0.418196712  0.570148404
     0.167318909  0.581803288  0.570148404
     0.332681091  0.081803288  0.929851596
     0.167318909  0.918196712  0.929851596
     0.667318909  0.581803288  0.429851596
     0.832681091  0.418196712  0.429851596
     0.667318909  0.918196712  0.070148404
     0.832681091  0.081803288  0.070148404
     0.602955636  0.291050202  0.429932361
     0.897044364  0.708949798  0.429932361
     0.602955636  0.208949798  0.070067639
     0.897044364  0.791050202  0.070067639
[...]
   -.160E-08 -.173E-10 0.485E+02   -.583E-13 -.392E-12 -.545E+02   -.159E-20 -.847E-21 0.593E+01   -.352E-11 -.376E-11 -.535E-03
   -.225E+02 0.257E+02 -.155E+02   0.274E+02 -.297E+02 0.193E+02   -.491E+01 0.400E+01 -.371E+01   -.577E-04 -.728E-04 0.534E-04
   0.225E+02 -.257E+02 -.155E+02   -.274E+02 0.297E+02 0.193E+02   0.491E+01 -.400E+01 -.371E+01   0.577E-04 0.728E-04 0.534E-04
   -.225E+02 -.257E+02 0.155E+02   0.274E+02 0.297E+02 -.193E+02   -.491E+01 -.400E+01 0.371E+01   -.577E-04 0.728E-04 -.534E-04
   0.225E+02 0.257E+02 0.155E+02   -.274E+02 -.297E+02 -.193E+02   0.491E+01 0.400E+01 0.371E+01   0.577E-04 -.728E-04 -.534E-04
   0.225E+02 -.257E+02 0.155E+02   -.274E+02 0.297E+02 -.193E+02   0.491E+01 -.400E+01 0.371E+01   0.577E-04 0.728E-04 -.534E-04
   -.225E+02 0.257E+02 0.155E+02   0.274E+02 -.297E+02 -.193E+02   -.491E+01 0.400E+01 0.371E+01   -.577E-04 -.728E-04 -.534E-04
   0.225E+02 0.257E+02 -.155E+02   -.274E+02 -.297E+02 0.193E+02   0.491E+01 0.400E+01 -.371E+01   0.577E-04 -.728E-04 0.534E-04
   -.225E+02 -.257E+02 -.155E+02   0.274E+02 0.297E+02 0.193E+02   -.491E+01 -.400E+01 -.371E+01   -.577E-04 0.728E-04 0.534E-04
   -.264E+01 0.650E+01 0.421E+02   0.187E+01 -.726E+01 -.493E+02   0.753E+00 0.774E+00 0.720E+01   -.217E-03 0.132E-03 0.612E-04
   0.264E+01 -.650E+01 0.421E+02   -.187E+01 0.726E+01 -.493E+02   -.753E+00 -.774E+00 0.720E+01   0.217E-03 -.132E-03 0.612E-04
   -.264E+01 -.650E+01 -.421E+02   0.187E+01 0.726E+01 0.493E+02   0.753E+00 -.774E+00 -.720E+01   -.217E-03 -.132E-03 -.612E-04
   0.264E+01 0.650E+01 -.421E+02   -.187E+01 -.726E+01 0.493E+02   -.753E+00 0.774E+00 -.720E+01   0.217E-03 0.132E-03 -.612E-04
   0.264E+01 -.650E+01 -.421E+02   -.187E+01 0.726E+01 0.493E+02   -.753E+00 -.774E+00 -.720E+01   0.217E-03 -.132E-03 -.612E-04
   -.264E+01 0.650E+01 -.421E+02   0.187E+01 -.726E+01 0.493E+02   0.753E+00 0.774E+00 -.720E+01   -.217E-03 0.132E-03 -.612E-04
   0.264E+01 0.650E+01 0.421E+02   -.187E+01 -.726E+01 -.493E+02   -.753E+00 0.774E+00 0.720E+01   0.217E-03 0.132E-03 0.612E-04
   -.264E+01 -.650E+01 0.421E+02   0.187E+01 0.726E+01 -.493E+02   0.753E+00 -.774E+00 0.720E+01   -.217E-03 -.132E-03 0.612E-04
   -.284E+02 -.398E+02 0.353E+02   0.315E+02 0.440E+02 -.377E+02   -.306E+01 -.420E+01 0.249E+01   0.103E-03 0.106E-04 0.217E-04
   0.284E+02 0.398E+02 0.353E+02   -.315E+02 -.440E+02 -.377E+02   0.306E+01 0.420E+01 0.249E+01   -.103E-03 -.106E-04 0.217E-04
   -.284E+02 0.398E+02 -.353E+02   0.315E+02 -.440E+02 0.377E+02   -.306E+01 0.420E+01 -.249E+01   0.103E-03 -.106E-04 -.217E-04
   0.284E+02 -.398E+02 -.353E+02   -.315E+02 0.440E+02 0.377E+02   0.306E+01 -.420E+01 -.249E+01   -.103E-03 0.106E-04 -.217E-04
   0.284E+02 0.398E+02 -.353E+02   -.315E+02 -.440E+02 0.377E+02   0.306E+01 0.420E+01 -.249E+01   -.103E-03 -.106E-04 -.217E-04
   -.284E+02 -.398E+02 -.353E+02   0.315E+02 0.440E+02 0.377E+02   -.306E+01 -.420E+01 -.249E+01   0.103E-03 0.106E-04 -.217E-04
   0.284E+02 -.398E+02 0.353E+02   -.315E+02 0.440E+02 -.377E+02   0.306E+01 -.420E+01 0.249E+01   -.103E-03 0.106E-04 0.217E-04
   -.284E+02 0.398E+02 0.353E+02   0.315E+02 -.440E+02 -.377E+02   -.306E+01 0.420E+01 0.249E+01   0.103E-03 -.106E-04 0.217E-04
   0.248E+02 -.264E+02 -.216E+02   -.285E+02 0.314E+02 0.253E+02   0.370E+01 -.502E+01 -.374E+01   -.212E-04 -.884E-04 0.825E-06
   -.248E+02 0.264E+02 -.216E+02   0.285E+02 -.314E+02 0.253E+02   -.370E+01 0.502E+01 -.374E+01   0.212E-04 0.884E-04 0.825E-06
   0.248E+02 0.264E+02 0.216E+02   -.285E+02 -.314E+02 -.253E+02   0.370E+01 0.502E+01 0.374E+01   -.212E-04 0.884E-04 -.825E-06
   -.248E+02 -.264E+02 0.216E+02   0.285E+02 0.314E+02 -.253E+02   -.370E+01 -.502E+01 0.374E+01   0.212E-04 -.884E-04 -.825E-06
   -.248E+02 0.264E+02 0.216E+02   0.285E+02 -.314E+02 -.253E+02   -.370E+01 0.502E+01 0.374E+01   0.212E-04 0.884E-04 -.825E-06
   0.248E+02 -.264E+02 0.216E+02   -.285E+02 0.314E+02 -.253E+02   0.370E+01 -.502E+01 0.374E+01   -.212E-04 -.884E-04 -.825E-06
   -.248E+02 -.264E+02 -.216E+02   0.285E+02 0.314E+02 0.253E+02   -.370E+01 -.502E+01 -.374E+01   0.212E-04 -.884E-04 0.825E-06
   0.248E+02 0.264E+02 -.216E+02   -.285E+02 -.314E+02 0.253E+02   0.370E+01 0.502E+01 -.374E+01   -.212E-04 0.884E-04 0.825E-06
   -.444E+02 0.591E+02 0.573E+02   0.495E+02 -.636E+02 -.613E+02   -.512E+01 0.454E+01 0.409E+01   -.245E-02 0.170E-02 -.152E-02
   0.444E+02 -.591E+02 0.573E+02   -.495E+02 0.636E+02 -.613E+02   0.512E+01 -.454E+01 0.409E+01   0.245E-02 -.170E-02 -.152E-02
   -.444E+02 -.591E+02 -.573E+02   0.495E+02 0.636E+02 0.613E+02   -.512E+01 -.454E+01 -.409E+01   -.245E-02 -.170E-02 0.152E-02
   0.444E+02 0.591E+02 -.573E+02   -.495E+02 -.636E+02 0.613E+02   0.512E+01 0.454E+01 -.409E+01   0.245E-02 0.170E-02 0.152E-02
[...]
   -.304E+01 -.106E+03 -.150E+02   -.281E+02 0.127E+03 0.330E+02   0.310E+02 -.213E+02 -.179E+02   0.289E-02 0.609E-02 0.376E-03
   0.304E+01 0.106E+03 -.150E+02   0.281E+02 -.127E+03 0.330E+02   -.310E+02 0.213E+02 -.179E+02   -.289E-02 -.609E-02 0.376E-03
   0.304E+01 -.106E+03 -.150E+02   0.281E+02 0.127E+03 0.330E+02   -.310E+02 -.213E+02 -.179E+02   -.289E-02 0.609E-02 0.376E-03
   -.304E+01 0.106E+03 -.150E+02   -.281E+02 -.127E+03 0.330E+02   0.310E+02 0.213E+02 -.179E+02   0.289E-02 -.609E-02 0.376E-03
   0.304E+01 0.106E+03 0.150E+02   0.281E+02 -.127E+03 -.330E+02   -.310E+02 0.213E+02 0.179E+02   -.289E-02 -.609E-02 -.376E-03
   -.304E+01 -.106E+03 0.150E+02   -.281E+02 0.127E+03 -.330E+02   0.310E+02 -.213E+02 0.179E+02   0.289E-02 0.609E-02 -.376E-03
   0.678E+02 0.863E+02 -.491E+02   -.606E+02 -.103E+03 0.867E+02   -.713E+01 0.164E+02 -.375E+02   -.410E-02 0.297E-02 -.178E-02
   -.678E+02 -.863E+02 -.491E+02   0.606E+02 0.103E+03 0.867E+02   0.713E+01 -.164E+02 -.375E+02   0.410E-02 -.297E-02 -.178E-02
   0.678E+02 -.863E+02 0.491E+02   -.606E+02 0.103E+03 -.867E+02   -.713E+01 -.164E+02 0.375E+02   -.410E-02 -.297E-02 0.178E-02
   -.678E+02 0.863E+02 0.491E+02   0.606E+02 -.103E+03 -.867E+02   0.713E+01 0.164E+02 0.375E+02   0.410E-02 0.297E-02 0.178E-02
   -.678E+02 -.863E+02 0.491E+02   0.606E+02 0.103E+03 -.867E+02   0.713E+01 -.164E+02 0.375E+02   0.410E-02 -.297E-02 0.178E-02
   0.678E+02 0.863E+02 0.491E+02   -.606E+02 -.103E+03 -.867E+02   -.713E+01 0.164E+02 0.375E+02   -.410E-02 0.297E-02 0.178E-02
   -.678E+02 0.863E+02 -.491E+02   0.606E+02 -.103E+03 0.867E+02   0.713E+01 0.164E+02 -.375E+02   0.410E-02 0.297E-02 -.178E-02
   0.678E+02 -.863E+02 -.491E+02   -.606E+02 0.103E+03 0.867E+02   -.713E+01 -.164E+02 -.375E+02   -.410E-02 -.297E-02 -.178E-02
   0.153E-08 0.915E-09 0.189E-09   -.128E-12 0.142E-13 -.142E-12   -.355E-14 0.107E-13 0.355E-13   -.520E-11 -.142E-09 -.503E-10

 POSITION                                       TOTAL-FORCE (eV/Angst)
      2.16144      2.90684      2.22713         0.000135      0.000000      0.000000
      1.95764      8.72053      2.22713        -0.000135      0.000000     -0.000000
      6.07673      8.72053      6.68139        -0.000135     -0.000000     -0.000000
      6.28053      2.90684      6.68139         0.000135     -0.000000      0.000000
      2.05954      5.81369      2.69695        -0.000000      0.000000      0.001953
      2.05954      0.00000      1.75731        -0.000000     -0.000000     -0.001953
      6.17863      5.81369      6.21157        -0.000000      0.000000     -0.001953
      6.17863      0.00000      7.15121        -0.000000      0.000000      0.001953
      4.38074      2.57951      4.31117         0.000818     -0.001063     -0.000818
      7.97652      9.04787      4.31117        -0.000818      0.001063     -0.000818
      4.38074      3.23418      0.14309         0.000818      0.001063      0.000818
      7.97652      8.39320      0.14309        -0.000818     -0.001063      0.000818
      3.85743      9.04787      4.59735        -0.000818      0.001063      0.000818
      0.26166      2.57951      4.59735         0.000818     -0.001063      0.000818
      3.85743      8.39320      8.76543        -0.000818     -0.001063     -0.000818
      0.26166      3.23418      8.76543         0.000818      0.001063     -0.000818
      2.05954      5.81369      6.76076        -0.000000     -0.000000      0.004100
      2.05954      0.00000      6.60202        -0.000000      0.000000     -0.004100
      6.17863      5.81369      2.14776        -0.000000      0.000000     -0.004100
      6.17863      0.00000      2.30650        -0.000000      0.000000      0.004100
      2.05954      5.81369      1.60131        -0.000000     -0.000000      0.001279
      2.05954      0.00000      2.85295        -0.000000      0.000000     -0.001279
      6.17863      5.81369      7.30721        -0.000000      0.000000     -0.001279
      6.17863      0.00000      6.05557        -0.000000      0.000000      0.001279
      3.53004      4.40531      6.61972         0.000383     -0.000732     -0.000026
      0.58905      7.22207      6.61972        -0.000383      0.000732     -0.000026
      3.53004      1.40838      6.74307         0.000383      0.000732      0.000026
      0.58905     10.21900      6.74307        -0.000383     -0.000732      0.000026
      4.70814      7.22207      2.28880        -0.000383      0.000732      0.000026
      7.64912      4.40531      2.28880         0.000383     -0.000732      0.000026
      4.70814     10.21900      2.16546        -0.000383     -0.000732     -0.000026
      7.64912      1.40838      2.16546         0.000383      0.000732     -0.000026
      2.74069      4.86253      5.07918         0.000656     -0.000393      0.001284
      1.37840      6.76485      5.07918        -0.000656      0.000393      0.001284
      2.74069      0.95116      8.28360         0.000656      0.000393     -0.001284
      1.37840     10.67622      8.28360        -0.000656     -0.000393     -0.001284
      5.49749      6.76485      3.82934        -0.000656      0.000393     -0.001284
      6.85977      4.86253      3.82934         0.000656     -0.000393     -0.001284
      5.49749     10.67622      0.62492        -0.000656     -0.000393      0.001284
      6.85977      0.95116      0.62492         0.000656      0.000393      0.001284
      4.96725      3.38415      3.83006         0.002610     -0.002146     -0.000378
      7.39001      8.24323      3.83006        -0.002610      0.002146     -0.000378
      4.96725      2.42954      0.62420         0.002610      0.002146      0.000378
      7.39001      9.19784      0.62420        -0.002610     -0.002146      0.000378
      3.27092      8.24323      5.07846        -0.002610      0.002146      0.000378
      0.84817      3.38415      5.07846         0.002610     -0.002146      0.000378
      3.27092      9.19784      8.28432        -0.002610     -0.002146     -0.000378
      0.84817      2.42954      8.28432         0.002610      0.002146     -0.000378
      1.53145      6.52631      8.61050        -0.000812      0.000465     -0.001020
      2.58764      5.10107      8.61050         0.000812     -0.000465     -0.001020
      1.53145     10.91476      4.75229        -0.000812     -0.000465      0.001020
      2.58764      0.71262      4.75229         0.000812      0.000465      0.001020
      6.70672      5.10107      0.29802         0.000812     -0.000465      0.001020
      5.65054      6.52631      0.29802        -0.000812      0.000465      0.001020
      6.70672      0.71262      4.15624         0.000812      0.000465     -0.001020
      5.65054     10.91476      4.15624        -0.000812     -0.000465     -0.001020
      2.85060      4.96273      6.09365         0.000451     -0.001121     -0.001592
      1.26849      6.66465      6.09365        -0.000451      0.001121     -0.001592
      2.85060      0.85096      7.26913         0.000451      0.001121      0.001592
      1.26849     10.77642      7.26913        -0.000451     -0.001121      0.001592
[...]
      0.71927      9.55101      3.68015        -0.000909      0.000778      0.001032
      3.39982      3.73732      0.77411         0.000909      0.000778     -0.001032
      0.71927      7.89005      0.77411        -0.000909     -0.000778     -0.001032
      4.83835      9.55101      5.22837        -0.000909      0.000778     -0.001032
      7.51891      2.07637      5.22837         0.000909     -0.000778     -0.001032
      4.83835      7.89005      8.13442        -0.000909     -0.000778      0.001032
      7.51891      3.73732      8.13442         0.000909      0.000778      0.001032
      4.71000      2.19766      5.47812         0.000583     -0.000584      0.001319
      7.64726      9.42972      5.47812        -0.000583      0.000584      0.001319
      4.71000      3.61603      7.88467         0.000583      0.000584     -0.001319
      7.64726      8.01135      7.88467        -0.000583     -0.000584     -0.001319
      3.52818      9.42972      3.43040        -0.000583      0.000584     -0.001319
      0.59091      2.19766      3.43040         0.000583     -0.000584     -0.001319
      3.52818      8.01135      1.02386        -0.000583     -0.000584      0.001319
      0.59091      3.61603      1.02386         0.000583      0.000584      0.001319
    total drift:                                0.000000      0.000000      0.000000

  FREE ENERGIE OF THE ION-ELECTRON SYSTEM (eV)
  free  energy   TOTEN  =      -578.21740205 eV

  energy  without entropy=     -578.21740205  energy(sigma->0) =     -578.21740205

 total charge

[...]

 magnetization (x)

# of ion       s       p       d       tot
    1        0.001  -0.001   1.585   1.585
    2       -0.001   0.001  -1.585  -1.585
    3        0.001  -0.001   1.585   1.585
    4       -0.001   0.001  -1.585  -1.585
    5        0.000   0.000   0.000   0.000
    6        0.000   0.000   0.000   0.000
    7        0.000   0.000   0.000   0.000
    8        0.000   0.000   0.000   0.000
    9        0.000   0.001   0.000   0.001
   10       -0.000  -0.001   0.000  -0.001
   11        0.000   0.001   0.000   0.001
   12       -0.000  -0.001   0.000  -0.001
   13        0.000   0.001   0.000   0.001
   14       -0.000  -0.001   0.000  -0.001
   15        0.000   0.001   0.000   0.001
   16       -0.000  -0.001   0.000  -0.001
   17        0.000   0.000   0.000   0.000
   18        0.000   0.000   0.000   0.000
   19        0.000   0.000   0.000   0.000
   20        0.000   0.000   0.000   0.000
   21        0.000   0.000   0.000   0.000
   22        0.000   0.000   0.000   0.000
   23        0.000   0.000   0.000   0.000
   24        0.000   0.000   0.000   0.000
   25        0.000  -0.000   0.000   0.000
   26       -0.000   0.000   0.000  -0.000
   27        0.000  -0.000   0.000   0.000
   28       -0.000   0.000   0.000  -0.000
   29        0.000  -0.000   0.000   0.000
   30       -0.000   0.000   0.000  -0.000
   31        0.000  -0.000   0.000   0.000
   32       -0.000   0.000   0.000  -0.000
   33       -0.000   0.000   0.000   0.000
   34        0.000  -0.000   0.000  -0.000
   35       -0.000   0.000   0.000   0.000
   36        0.000  -0.000   0.000  -0.000
   37       -0.000   0.000   0.000   0.000
   38        0.000  -0.000   0.000  -0.000
   39       -0.000   0.000   0.000   0.000
   40        0.000  -0.000   0.000  -0.000
   41       -0.000   0.000   0.000  -0.000
   42        0.000  -0.000   0.000   0.000
   43       -0.000   0.000   0.000  -0.000
   44        0.000  -0.000   0.000   0.000
   45       -0.000   0.000   0.000  -0.000
   46        0.000  -0.000   0.000   0.000
   47       -0.000   0.000   0.000  -0.000
   48        0.000  -0.000   0.000   0.000
   49        0.000  -0.000   0.000  -0.000
   50       -0.000   0.000   0.000   0.000
   51        0.000  -0.000   0.000  -0.000
   52       -0.000   0.000   0.000   0.000
   53        0.000  -0.000   0.000  -0.000
   54       -0.000   0.000   0.000   0.000
   55        0.000  -0.000   0.000  -0.000
   56       -0.000   0.000   0.000   0.000
   57        0.000   0.000   0.000   0.000
   58       -0.000  -0.000   0.000  -0.000
   59        0.000   0.000   0.000   0.000
   60       -0.000  -0.000   0.000  -0.000
[...]
   78       -0.005  -0.038   0.000  -0.043
   79        0.005   0.038   0.000   0.043
   80       -0.005  -0.038   0.000  -0.043
   81        0.005   0.038   0.000   0.043
   82       -0.005  -0.038   0.000  -0.043
   83        0.005   0.038   0.000   0.043
   84       -0.005  -0.038   0.000  -0.043
   85       -0.005  -0.042   0.000  -0.047
   86        0.005   0.042   0.000   0.047
   87       -0.005  -0.042   0.000  -0.047
   88        0.005   0.042   0.000   0.047
   89       -0.005  -0.042   0.000  -0.047
   90        0.005   0.042   0.000   0.047
   91       -0.005  -0.042   0.000  -0.047
   92        0.005   0.042   0.000   0.047
tot          0.000   0.000   0.000   0.000