 vasp.6.3.0 20Jan22 (build Feb 18 2022 09:23:16) complex

 INCAR:
   AMIX = 0.1
   ISYM = -1
   IVDW = 11           (DFT-D3 method of method with no damping)
   ISPIN = 2 (Spin polarised DFT)
   ISTART = 1            (Read existing wavefunction
   ICHARG = 11         (Non-self-consistent: GGA/LDA band structures)
   LORBIT = 11
   LASPH = T
   GGA_COMPAT = .FALSE.
   LREAL = .FALSE.       (Projection operators: automatic)
   ENCUT = 850.0      (Cut-off energy for plane wave basis set, in eV)
   ENAUG = 1500.0
   PREC = Accurate     (Precision level)
   LMAXMIX = 4
   LWAVE = F
   LCHARG = F
   ADDGRID = .TRUE.        (Increase grid
   LPLANE = .TRUE.      (Real space distribution
   NWRITE = 2           (Medium-level output)
   KPAR = 2           (Divides k-grid into separate groups)
   NSW = 0          (number of ionic steps)
   ISMEAR = 0            (gaussian smearing method )
   SIGMA = 0.05         (please check the width of the smearing)
   IBRION = -1            (Algorithm: 0-MD
   POTIM = 0.1
   ISIF = 3            (optimize atomic coordinates and lattice parameters)
   EDIFFG = -0.005       (Ionic convergence
   EDIFF = 1.0d-10
   NELM = 50
   NELMIN = 6
   NELMDL = -8
   ALGO = Normal
   MAGMOM = 4 4 4 -4 -4 -4 36*0 18*0 42*0 6*0
   LCALCPOL = T

 POTCAR:    PAW_PBE Co 02Aug2007
 POTCAR:    PAW_PBE O 08Apr2002
 POTCAR:    PAW_PBE C 08Apr2002
 POTCAR:    PAW_PBE H 15Jun2001
 POTCAR:    PAW_PBE N 08Apr2002
|           W    W    AA    RRRRR   N    N  II  N    N   GGGG   !!!           |
|           W    W   A  A   R    R  NN   N  II  NN   N  G    G  !!!           |
|           W    W  A    A  R    R  N N  N  II  N N  N  G       !!!           |
|           W WW W  AAAAAA  RRRRR   N  N N  II  N  N N  G  GGG   !            |
|           WW  WW  A    A  R   R   N   NN  II  N   NN  G    G                |
|           W    W  A    A  R    R  N    N  II  N    N   GGGG   !!!           |
|     For optimal performance we recommend to set                             |
|       NCORE = 2 up to number-of-cores-per-socket                            |
|     This setting can greatly improve the performance of VASP for DFT.       |
|     The default, NCORE=1 might be grossly inefficient on modern             |
|     multi-core architectures or massively parallel machines. Do your        |
|     Unfortunately you need to use the default for GW and RPA                |
|     calculations (for HF NCORE is supported but not extensively tested      |
|     yet).                                                                   |

   TITEL  = PAW_PBE Co 02Aug2007
   POMASS =   58.933; ZVAL   =    9.000    mass and valenz
   ENMAX  =  267.968; ENMIN  =  200.976 eV

   TITEL  = PAW_PBE O 08Apr2002
   POMASS =   16.000; ZVAL   =    6.000    mass and valenz
   ENMAX  =  400.000; ENMIN  =  300.000 eV

[...]

   TITEL  = PAW_PBE H 15Jun2001
   POMASS =    1.000; ZVAL   =    1.000    mass and valenz
   ENMAX  =  250.000; ENMIN  =  200.000 eV

   TITEL  = PAW_PBE N 08Apr2002
   POMASS =   14.001; ZVAL   =    5.000    mass and valenz
   ENMAX  =  400.000; ENMIN  =  300.000 eV

  PAW_PBE Co 02Aug2007                  :
  PAW_PBE O 08Apr2002                   :
  PAW_PBE C 08Apr2002                   :
  PAW_PBE H 15Jun2001                   :
  PAW_PBE N 08Apr2002                   :

 POSCAR: crystal
  positions in direct lattice
  velocities in cartesian coordinates
 exchange correlation table for  LEXCH =        8
   RHO(1)=    0.500       N(1)  =     2000
   RHO(2)=  100.500       N(2)  =     4000

 ion  position               nearest neighbor table
   1  0.335  0.332  0.587-  18 2.10  31 2.10   7 2.11  28 2.11  41 2.12  19 2.12
   2  0.668  0.004  0.587-  16 2.10  32 2.10   8 2.11  29 2.11  42 2.12  20 2.12
   3  0.996  0.665  0.587-  17 2.10  33 2.10   9 2.11  30 2.11  40 2.12  21 2.12
   4  0.665  0.668  0.087-  15 2.10  34 2.10  10 2.11  25 2.11  38 2.12  22 2.12
   5  0.332  0.996  0.087-  13 2.10  35 2.10  11 2.11  26 2.11  39 2.12  23 2.12
   6  0.004  0.335  0.087-  14 2.10  36 2.10  12 2.11  27 2.11  37 2.12  24 2.12
   7  0.424  0.261  0.444-  43 1.28   1 2.11
   8  0.739  0.163  0.444-  44 1.28   2 2.11
   9  0.837  0.576  0.444-  45 1.28   3 2.11
  10  0.576  0.739  0.944-  46 1.28   4 2.11
  11  0.261  0.837  0.944-  47 1.28   5 2.11
  12  0.163  0.424  0.944-  48 1.28   6 2.11
  13  0.427  0.154  0.230-  43 1.27   5 2.10
  14  0.846  0.273  0.230-  44 1.27   6 2.10
  15  0.727  0.573  0.230-  45 1.27   4 2.10
  16  0.573  0.846  0.730-  46 1.27   2 2.10
  17  0.154  0.727  0.730-  47 1.27   3 2.10
  18  0.273  0.427  0.730-  48 1.27   1 2.10
  19  0.403  0.492  0.443-  49 1.28   1 2.12
  20  0.508  0.911  0.443-  50 1.28   2 2.12
  21  0.089  0.598  0.443-  51 1.28   3 2.12
  22  0.597  0.508  0.943-  52 1.28   4 2.12
  23  0.492  0.089  0.943-  53 1.28   5 2.12
  24  0.911  0.402  0.943-  54 1.28   6 2.12
  25  0.505  0.603  0.228-  49 1.27   4 2.11
  26  0.397  0.902  0.228-  50 1.27   5 2.11
  27  0.098  0.495  0.228-  51 1.27   6 2.11
  28  0.495  0.397  0.728-  52 1.27   1 2.11
  29  0.603  0.098  0.728-  53 1.27   2 2.11
  30  0.902  0.505  0.728-  54 1.27   3 2.11
  31  0.175  0.237  0.448-  55 1.27   1 2.10
  32  0.763  0.938  0.448-  56 1.27   2 2.10
  33  0.062  0.825  0.448-  57 1.27   3 2.10
  34  0.825  0.763  0.948-  58 1.27   4 2.10
  35  0.237  0.062  0.948-  59 1.27   5 2.10
  36  0.938  0.175  0.948-  60 1.27   6 2.10
  37  0.072  0.244  0.231-  55 1.28   6 2.12
  38  0.756  0.829  0.231-  56 1.28   4 2.12
  39  0.171  0.928  0.231-  57 1.28   5 2.12
  40  0.928  0.756  0.731-  58 1.28   3 2.12
  41  0.244  0.171  0.731-  59 1.28   1 2.12
  42  0.829  0.072  0.731-  60 1.28   2 2.12
  43  0.371  0.183  0.331-  61 1.10  13 1.27   7 1.28
  44  0.817  0.187  0.331-  62 1.10  14 1.27   8 1.28
  45  0.813  0.629  0.331-  63 1.10  15 1.27   9 1.28
  46  0.629  0.817  0.831-  64 1.10  16 1.27  10 1.28
  47  0.183  0.813  0.831-  65 1.10  17 1.27  11 1.28
  48  0.187  0.371  0.831-  66 1.10  18 1.27  12 1.28
  49  0.474  0.514  0.323-  67 1.10  25 1.27  19 1.28
  50  0.486  0.960  0.323-  68 1.10  26 1.27  20 1.28
  51  0.040  0.526  0.323-  69 1.10  27 1.27  21 1.28
  52  0.526  0.486  0.823-  70 1.10  28 1.27  22 1.28
  53  0.514  0.040  0.823-  71 1.10  29 1.27  23 1.28
  54  0.960  0.474  0.823-  72 1.10  30 1.27  24 1.28
  55  0.144  0.294  0.350-  73 1.10  31 1.27  37 1.28
  56  0.706  0.850  0.350-  74 1.10  32 1.27  38 1.28
  57  0.150  0.856  0.350-  75 1.10  33 1.27  39 1.28
  58  0.856  0.706  0.850-  76 1.10  34 1.27  40 1.28
  59  0.294  0.150  0.850-  77 1.10  35 1.27  41 1.28
  60  0.850  0.144  0.850-  78 1.10  36 1.27  42 1.28
[...]
  94  0.667  0.333  0.160- 106 1.02
  95  0.028  0.090  0.175- 107 1.05
  96  0.910  0.938  0.175- 107 1.05
  97  0.062  0.972  0.175- 107 1.05
  98  0.972  0.910  0.675- 108 1.05
  99  0.090  0.062  0.675- 108 1.05
 100  0.938  0.028  0.675- 108 1.05
 101  1.000  0.000  0.013- 107 1.02
 102  0.000  1.000  0.513- 108 1.02
 103  0.667  0.333  0.537-  85 1.02  81 1.05  79 1.05  80 1.05
 104  0.333  0.667  0.037-  86 1.02  84 1.05  82 1.05  83 1.05
 105  0.333  0.667  0.537-  93 1.02  88 1.05  89 1.05  87 1.05
 106  0.667  0.333  0.037-  94 1.02  91 1.05  92 1.05  90 1.05
 107  1.000  0.000  0.136- 101 1.02  95 1.05  96 1.05  97 1.05
 108  0.000  1.000  0.636- 102 1.02  98 1.05  99 1.05 100 1.05

IMPORTANT INFORMATION: All symmetrisations will be switched off!
NOSYMM: (Re-)initialisation of all symmetry stuff for point group C_1.

                                     Primitive cell

  volume of cell :    1135.5180

  direct lattice vectors                    reciprocal lattice vectors
    12.561372244 -0.000102703 -0.000000000     0.079609512  0.045961519  0.000000000
    -6.280570824 10.878517227  0.000000000     0.000000752  0.091924726  0.000000000
    -0.000000000  0.000000000  8.309775343     0.000000000  0.000000000  0.120340197

  length of vectors
    12.561372245 12.561357687  8.309775343     0.091924620  0.091924726  0.120340197

  position of ions in fractional coordinates (direct lattice)
     0.335077837  0.331507603  0.587032697
     0.668492881  0.003569055  0.587032340
     0.996429577  0.664923890  0.587031520
     0.664922163  0.668492397  0.087032697
     0.331507119  0.996430945  0.087032340
     0.003570423  0.335076110  0.087031520
     0.424108633  0.261027353  0.444259281
     0.738972988  0.163077858  0.444258401
     0.836919307  0.575891639  0.444260776
     0.575891367  0.738972647  0.944259281
     0.261027012  0.836922142  0.944258401
     0.163080693  0.424108361  0.944260776
     0.427179680  0.154478711  0.229902135
     0.845520665  0.272696871  0.229900168
     0.727300307  0.572821441  0.229903833
     0.572820320  0.845521289  0.729902135
     0.154479335  0.727303129  0.729900168
     0.272699693  0.427178559  0.729903833
     0.402500503  0.491836911  0.443352367
     0.508164215  0.910664169  0.443350209
     0.089335264  0.597501553  0.443349118
     0.597499497  0.508163089  0.943352367
     0.491835785  0.089335831  0.943350209
     0.910664736  0.402498447  0.943349118
     0.504807291  0.603103104  0.227730450
     0.396895559  0.901704462  0.227729132
     0.098293972  0.495191010  0.227728957
     0.495192709  0.396896896  0.727730450
     0.603104441  0.098295538  0.727729132
     0.901706028  0.504808990  0.727728957
     0.174530229  0.236839411  0.447896126
     0.763161535  0.937689467  0.447898295
     0.062307196  0.825471663  0.447894814
     0.825469771  0.763160589  0.947896126
     0.236838465  0.062310533  0.947898295
     0.937692804  0.174528337  0.947894814
     0.072382023  0.243664416  0.230766062
     0.756334610  0.828717214  0.230767271
     0.171283319  0.927619689  0.230766879
     0.927617977  0.756335584  0.730766062
     0.243665390  0.171282786  0.730767271
     0.828716681  0.072380311  0.730766879
     0.370592749  0.183134816  0.331498451
     0.816867110  0.187456501  0.331495721
     0.812539086  0.629407544  0.331499614
     0.629407251  0.816865184  0.831498451
     0.183132890  0.812543499  0.831495721
     0.187460914  0.370592456  0.831499614
     0.473895035  0.513745766  0.323186954
     0.486255444  0.960148899  0.323184232
     0.039849337  0.526104573  0.323186259
     0.526104965  0.486254234  0.823186954
     0.513744556  0.039851101  0.823184232
     0.960150663  0.473895427  0.823186259
     0.144232549  0.294436433  0.350023558
     0.705563593  0.849792914  0.350023038
     0.150205374  0.855771556  0.350024967
     0.855767451  0.705563567  0.850023558
     0.294436407  0.150207086  0.850023038
     0.849794626  0.144228444  0.850024967
[...]
     0.666669691  0.333332047  0.159832261
     0.027572022  0.089554042  0.175154967
     0.910445005  0.938017616  0.175153452
     0.061981705  0.972427029  0.175152738
     0.972427978  0.910445958  0.675154967
     0.089554995  0.061982384  0.675153452
     0.938018295  0.027572971  0.675152738
     0.999999332  0.000001171  0.012923318
     0.000000668  0.999998829  0.512923318
     0.666667461  0.333332058  0.537226719
     0.333332539  0.666667942  0.037226719
     0.333331653  0.666668083  0.536799920
[...]
   0.124E+03 0.330E+02 -.548E+02   -.133E+03 -.575E+02 0.862E+02   0.923E+01 0.245E+02 -.314E+02   -.188E-01 0.212E-01 0.641E-02
   0.149E+03 -.639E+02 0.399E+02   -.161E+03 0.976E+02 -.653E+02   0.126E+02 -.338E+02 0.253E+02   0.881E-02 0.416E-02 -.889E-02
   -.190E+02 0.161E+03 0.399E+02   -.392E+01 -.188E+03 -.653E+02   0.230E+02 0.278E+02 0.253E+02   -.129E-01 0.435E-02 0.128E-02
   -.130E+03 -.969E+02 0.399E+02   0.165E+03 0.908E+02 -.653E+02   -.355E+02 0.599E+01 0.253E+02   0.158E-02 0.583E-02 0.102E-01
   -.149E+03 0.639E+02 0.399E+02   0.161E+03 -.976E+02 -.653E+02   -.126E+02 0.338E+02 0.253E+02   -.947E-02 -.550E-02 -.787E-02
   0.191E+02 -.161E+03 0.399E+02   0.392E+01 0.188E+03 -.653E+02   -.230E+02 -.278E+02 0.253E+02   0.115E-01 -.758E-02 0.140E-02
   0.130E+03 0.969E+02 0.399E+02   -.165E+03 -.908E+02 -.653E+02   0.355E+02 -.599E+01 0.253E+02   -.353E-02 -.800E-02 0.106E-01
   0.214E+02 0.158E+03 -.406E+02   0.996E+00 -.186E+03 0.666E+02   -.224E+02 0.275E+02 -.260E+02   -.112E-01 -.825E-02 0.134E-01
   -.148E+03 -.607E+02 -.406E+02   0.160E+03 0.938E+02 0.666E+02   -.126E+02 -.331E+02 -.260E+02   -.127E-01 0.228E-01 -.105E-01
   0.126E+03 -.977E+02 -.406E+02   -.161E+03 0.921E+02 0.666E+02   0.350E+02 0.565E+01 -.260E+02   0.299E-01 -.179E-01 -.943E-03
   -.214E+02 -.158E+03 -.406E+02   -.996E+00 0.186E+03 0.666E+02   0.224E+02 -.275E+02 -.260E+02   0.987E-02 0.606E-02 0.129E-01
   0.148E+03 0.607E+02 -.406E+02   -.160E+03 -.938E+02 0.666E+02   0.126E+02 0.331E+02 -.260E+02   0.125E-01 -.254E-01 -.107E-01
   -.126E+03 0.977E+02 -.406E+02   0.161E+03 -.921E+02 0.666E+02   -.350E+02 -.565E+01 -.260E+02   -.320E-01 0.160E-01 0.275E-03
   -.357E+02 0.124E+03 0.551E+02   0.192E+02 -.144E+03 -.864E+02   0.165E+02 0.206E+02 0.313E+02   -.127E-01 0.998E-02 0.193E-01
   -.894E+02 -.928E+02 0.552E+02   0.115E+03 0.889E+02 -.865E+02   -.261E+02 0.396E+01 0.313E+02   0.549E-02 0.564E-03 -.142E-01
   0.125E+03 -.310E+02 0.551E+02   -.135E+03 0.556E+02 -.865E+02   0.961E+01 -.246E+02 0.313E+02   0.149E-01 -.259E-01 -.759E-02
   0.357E+02 -.124E+03 0.551E+02   -.192E+02 0.144E+03 -.864E+02   -.165E+02 -.206E+02 0.313E+02   0.114E-01 -.133E-01 0.202E-01
   0.894E+02 0.928E+02 0.552E+02   -.115E+03 -.889E+02 -.865E+02   0.261E+02 -.396E+01 0.313E+02   -.708E-02 -.264E-02 -.132E-01
   -.125E+03 0.310E+02 0.551E+02   0.135E+03 -.556E+02 -.865E+02   -.961E+01 0.246E+02 0.313E+02   -.157E-01 0.237E-01 -.669E-02
   0.967E+02 0.423E+02 0.751E+01   -.103E+03 -.457E+02 -.815E+01   0.665E+01 0.343E+01 0.647E+00   -.492E-02 -.537E-02 -.632E-03
   -.850E+02 0.626E+02 0.748E+01   0.913E+02 -.667E+02 -.814E+01   -.629E+01 0.404E+01 0.647E+00   -.800E-03 0.108E-01 0.956E-02
   -.118E+02 -.105E+03 0.750E+01   0.121E+02 0.112E+03 -.813E+01   -.352E+00 -.747E+01 0.646E+00   0.142E-01 -.368E-03 -.931E-02
   -.967E+02 -.423E+02 0.751E+01   0.103E+03 0.457E+02 -.815E+01   -.665E+01 -.343E+01 0.647E+00   0.443E-02 0.454E-02 -.416E-03
   0.850E+02 -.626E+02 0.748E+01   -.913E+02 0.667E+02 -.814E+01   0.629E+01 -.404E+01 0.647E+00   0.651E-03 -.110E-01 0.107E-01
   0.118E+02 0.105E+03 0.750E+01   -.121E+02 -.112E+03 -.813E+01   0.352E+00 0.747E+01 0.646E+00   -.141E-01 -.652E-04 -.107E-01
   -.764E+02 0.762E+02 0.237E+02   0.822E+02 -.806E+02 -.250E+02   -.582E+01 0.440E+01 0.133E+01   -.191E-02 -.515E-02 -.300E-02
   -.278E+02 -.104E+03 0.237E+02   0.287E+02 0.111E+03 -.250E+02   -.904E+00 -.724E+01 0.133E+01   -.339E-02 0.164E-02 0.336E-02
   0.104E+03 0.281E+02 0.237E+02   -.111E+03 -.309E+02 -.250E+02   0.672E+01 0.284E+01 0.133E+01   0.392E-02 -.229E-02 0.730E-03
   0.764E+02 -.762E+02 0.237E+02   -.822E+02 0.806E+02 -.250E+02   0.582E+01 -.440E+01 0.133E+01   0.175E-02 0.524E-02 -.158E-02
   0.278E+02 0.104E+03 0.237E+02   -.287E+02 -.111E+03 -.250E+02   0.904E+00 0.724E+01 0.133E+01   0.348E-02 -.213E-02 0.219E-02
   -.104E+03 -.281E+02 0.237E+02   0.111E+03 0.309E+02 -.250E+02   -.672E+01 -.284E+01 0.133E+01   -.444E-02 0.130E-02 0.117E-02
   0.246E+02 -.105E+03 -.203E+02   -.254E+02 0.112E+03 0.215E+02   0.831E+00 -.730E+01 -.117E+01   -.111E-01 0.119E-02 0.660E-02
   0.787E+02 0.738E+02 -.203E+02   -.846E+02 -.782E+02 0.215E+02   0.591E+01 0.437E+01 -.117E+01   -.376E-02 0.495E-02 -.279E-02
   -.103E+03 0.312E+02 -.203E+02   0.110E+03 -.341E+02 0.215E+02   -.674E+01 0.293E+01 -.118E+01   0.670E-02 -.893E-02 -.735E-02
   -.246E+02 0.105E+03 -.203E+02   0.254E+02 -.112E+03 0.215E+02   -.832E+00 0.730E+01 -.117E+01   0.110E-01 -.168E-02 0.584E-02
   -.787E+02 -.738E+02 -.203E+02   0.846E+02 0.782E+02 0.215E+02   -.591E+01 -.437E+01 -.118E+01   0.337E-02 -.581E-02 -.216E-02
   0.103E+03 -.312E+02 -.203E+02   -.110E+03 0.341E+02 0.215E+02   0.674E+01 -.293E+01 -.118E+01   -.685E-02 0.839E-02 -.603E-02
[...]
   0.354E+01 -.298E+02 -.135E+02   -.495E+01 0.361E+02 0.155E+02   0.142E+01 -.630E+01 -.206E+01   0.278E-03 -.144E-03 0.621E-03
   0.240E+02 0.179E+02 -.135E+02   -.288E+02 -.223E+02 0.155E+02   0.475E+01 0.438E+01 -.206E+01   0.199E-03 -.124E-02 -.422E-03
   -.275E+02 0.118E+02 -.135E+02   0.337E+02 -.137E+02 0.155E+02   -.617E+01 0.192E+01 -.206E+01   -.112E-03 -.899E-03 -.736E-03
   -.354E+01 0.298E+02 -.135E+02   0.495E+01 -.361E+02 0.155E+02   -.142E+01 0.630E+01 -.206E+01   -.437E-03 0.417E-03 0.647E-03
   -.240E+02 -.179E+02 -.135E+02   0.288E+02 0.223E+02 0.155E+02   -.475E+01 -.438E+01 -.206E+01   -.289E-03 0.116E-02 -.334E-03
   0.275E+02 -.118E+02 -.135E+02   -.337E+02 0.137E+02 0.155E+02   0.617E+01 -.192E+01 -.206E+01   0.291E-03 0.737E-03 -.762E-03
   -.662E-03 0.136E-02 0.616E+02   -.760E-05 -.119E-03 -.690E+02   -.704E-04 0.268E-04 0.748E+01   0.710E-03 -.141E-02 0.393E-04
   0.702E-03 -.133E-02 0.616E+02   0.760E-05 0.119E-03 -.690E+02   0.772E-04 -.237E-04 0.748E+01   -.746E-03 0.138E-02 0.172E-03
   -.819E-03 -.815E-02 -.161E+01   0.121E-02 0.629E-03 -.175E+01   -.385E-03 -.217E-02 0.335E+01   0.697E-03 0.811E-02 -.536E-03
   0.146E-02 0.844E-02 -.161E+01   -.121E-02 -.629E-03 -.175E+01   0.554E-03 0.220E-02 0.335E+01   -.141E-02 -.840E-02 -.883E-03
   -.806E-02 0.151E-01 -.753E+01   0.129E-02 -.380E-02 0.406E+01   -.137E-02 0.306E-02 0.346E+01   0.754E-02 -.137E-01 -.593E-03
   0.872E-02 -.148E-01 -.753E+01   -.129E-02 0.380E-02 0.406E+01   0.155E-02 -.302E-02 0.346E+01   -.828E-02 0.134E-01 -.105E-02
   -.605E-02 0.906E-02 0.407E+01   0.109E-02 -.336E-02 -.687E+00   -.145E-02 0.120E-02 -.337E+01   0.598E-02 -.676E-02 -.180E-02
   0.653E-02 -.824E-02 0.407E+01   -.109E-02 0.336E-02 -.687E+00   0.158E-02 -.100E-02 -.337E+01   -.653E-02 0.586E-02 -.100E-02
   0.240E-01 0.346E-01 0.594E+01   -.496E-12 -.120E-12 0.213E-12   0.783E-02 0.103E-01 -.594E+01   -.308E-01 -.436E-01 0.252E-02

 POSITION                                       TOTAL-FORCE (eV/Angst)
      2.12698      3.60628      4.87811         0.000161     -0.000439     -0.000867
      8.37477      0.03876      4.87811        -0.000174      0.000967     -0.000288
      8.34042      7.23328      4.87810        -0.000447     -0.001053     -0.000468
      4.15382      7.27214      0.72322        -0.000235      0.000422     -0.000891
     -2.09397     10.83966      0.72322         0.000103     -0.000974     -0.000346
     -2.05962      3.64513      0.72321         0.000371      0.001043     -0.000502
      3.68799      2.83955      3.69169         0.001047     -0.000887     -0.000799
      8.25829      1.77397      3.69169         0.000958     -0.000337     -0.001636
      6.89593      6.26476      3.69171        -0.001950      0.000199     -0.000236
      2.59282      8.03887      7.84658        -0.001062      0.000986     -0.000803
     -1.97749      9.10445      7.84658        -0.000907      0.000381     -0.001718
     -0.61513      4.61365      7.84659         0.002025     -0.000166     -0.000164
      4.39575      1.68046      1.91044         0.001394      0.000990      0.001739
      8.90821      2.96645      1.91042        -0.000817     -0.000542      0.000279
      5.53824      6.23137      1.91045        -0.001195     -0.001385      0.002080
      1.88505      9.19796      6.06532        -0.001366     -0.000908      0.001677
     -2.62741      7.91196      6.06531         0.000824      0.000600      0.000245
      0.74256      4.64704      6.06534         0.001245      0.001472      0.002093
      1.96694      5.35041      3.68416         0.000980      0.002313     -0.000722
      0.66375      9.90662      3.68414        -0.001268     -0.000962     -0.000947
     -2.63048      6.49992      3.68413         0.000672      0.000691     -0.000956
      4.31386      5.52800      7.83905        -0.000924     -0.002267     -0.000820
      5.61705      0.97179      7.83903         0.001343      0.000995     -0.000895
      8.91128      4.37849      7.83902        -0.000687     -0.000583     -0.000963
      2.55324      6.56082      1.89239        -0.000633      0.000369      0.000496
     -0.67767      9.80917      1.89238         0.000634     -0.000600      0.000474
     -1.87538      5.38693      1.89238         0.000650     -0.000204     -0.000062
      3.72756      4.31760      6.04728         0.000639     -0.000308      0.000471
      6.95847      1.06925      6.04727        -0.000588      0.000685      0.000470
      8.15618      5.49148      6.04726        -0.000600      0.000290     -0.000107
      0.70485      2.57644      3.72192         0.000600     -0.000089     -0.001104
      3.69713     10.20059      3.72193         0.000857     -0.001588     -0.000471
     -4.40177      8.97990      3.72191        -0.001240      0.000832     -0.000348
      5.57595      8.30197      7.87680        -0.000518      0.000115     -0.001065
      2.58367      0.67782      7.87682        -0.000893      0.001682     -0.000484
     10.68257      1.89851      7.87679         0.001299     -0.000747     -0.000427
     -0.62113      2.65070      1.91761         0.001669     -0.001893      0.000629
      4.29578      9.01514      1.91762         0.000736      0.001336      0.001563
     -3.67443     10.09111      1.91762        -0.002447      0.000779      0.001887
      6.90194      8.22771      6.07250        -0.001619      0.001949      0.000619
      1.98502      1.86328      6.07251        -0.000685     -0.001264      0.001489
      9.95523      0.78731      6.07251         0.002448     -0.000686      0.001877
      3.50496      1.99220      2.75468        -0.003371     -0.001808     -0.001250
      9.08364      2.03916      2.75465         0.002595     -0.002208      0.000012
      6.25357      6.84694      2.75469         0.000929      0.004075      0.000112
      2.77584      8.88622      6.90957         0.003350      0.001727     -0.001181
     -2.80284      8.83925      6.90954        -0.002618      0.002164      0.000024
      0.02723      4.03148      6.90957        -0.000898     -0.004175      0.000070
      2.72616      5.58874      2.68561         0.001960     -0.002248      0.000507
      0.07775     10.44495      2.68559         0.000476      0.003043     -0.000403
     -2.80367      5.72323      2.68561        -0.003081     -0.001513     -0.000082
      3.55465      5.28967      6.84050        -0.001966      0.002202      0.000550
      6.20305      0.43347      6.84048        -0.000461     -0.003133     -0.000431
      9.08448      5.15518      6.84049         0.003060      0.001437     -0.000017
     -0.03747      3.20302      2.90862         0.000011      0.004668     -0.000266
      3.52566      9.24441      2.90861        -0.003854     -0.001011      0.000775
     -3.48795      9.30951      2.90863         0.004268     -0.002148     -0.000448
      6.31827      7.67540      7.06350        -0.000029     -0.004750     -0.000274
      2.75514      1.63400      7.06350         0.003841      0.000901      0.000850
      9.76875      1.56890      7.06352        -0.004316      0.002127     -0.000460
[...]
      6.28077      3.62609      1.32817         0.000174     -0.000024      0.003251
     -0.21611      0.97421      1.45550        -0.000156      0.000329      0.003197
      5.54515     10.20415      1.45549        -0.000087     -0.000025      0.002966
     -5.32882     10.57856      1.45548         0.000238     -0.000179      0.003073
      6.49691      9.90420      5.61039         0.000152     -0.000414      0.003223
      0.73565      0.67427      5.61037         0.000067     -0.000006      0.002953
     11.60962      0.29986      5.61037        -0.000266      0.000156      0.003078
     12.56136     -0.00009      0.10739        -0.000039     -0.000153     -0.001204
     -6.28056     10.87850      4.26228         0.000032      0.000130     -0.001245
      6.28074      3.62609      4.46423         0.000689     -0.001583      0.000167
      0.00006      7.25232      0.30935        -0.000607      0.001592      0.000242
      0.00005      7.25233      4.46069        -0.000609      0.000690      0.000884
      6.28075      3.62609      0.30580         0.000690     -0.000677      0.000975
     12.56136     -0.00010      1.12934        -0.000428      0.000128      0.001044
     -6.28056     10.87852      5.28423         0.000478     -0.000032      0.000985
    total drift:                                0.000988      0.001314     -0.000026

  FREE ENERGIE OF THE ION-ELECTRON SYSTEM (eV)
  free  energy   TOTEN  =      -670.69813691 eV

  energy  without entropy=     -670.69813691  energy(sigma->0) =     -670.69813691

 total charge

[...]

 magnetization (x)

# of ion       s       p       d       tot
    1        0.009   0.007   2.597   2.614
    2        0.009   0.007   2.597   2.614
    3        0.009   0.007   2.597   2.614
    4       -0.009  -0.007  -2.597  -2.614
    5       -0.009  -0.007  -2.597  -2.614
    6       -0.009  -0.007  -2.597  -2.614
    7        0.004   0.033   0.000   0.037
    8        0.004   0.033   0.000   0.037
    9        0.004   0.033   0.000   0.037
   10       -0.004  -0.033   0.000  -0.037
   11       -0.004  -0.033   0.000  -0.037
   12       -0.004  -0.033   0.000  -0.037
   13       -0.004  -0.038   0.000  -0.042
   14       -0.004  -0.038   0.000  -0.042
   15       -0.004  -0.038   0.000  -0.042
   16        0.004   0.038   0.000   0.042
   17        0.004   0.038   0.000   0.042
   18        0.004   0.038   0.000   0.042
   19        0.004   0.032   0.000   0.037
   20        0.004   0.032   0.000   0.037
   21        0.004   0.032   0.000   0.037
   22       -0.004  -0.032   0.000  -0.037
   23       -0.004  -0.032   0.000  -0.037
   24       -0.004  -0.032   0.000  -0.037
   25       -0.004  -0.037   0.000  -0.041
   26       -0.004  -0.037   0.000  -0.041
   27       -0.004  -0.037   0.000  -0.041
   28        0.004   0.037   0.000   0.041
   29        0.004   0.037   0.000   0.041
   30        0.004   0.037   0.000   0.041
   31        0.004   0.038   0.000   0.042
   32        0.004   0.038   0.000   0.042
   33        0.004   0.038   0.000   0.042
   34       -0.004  -0.038   0.000  -0.042
   35       -0.004  -0.038   0.000  -0.042
   36       -0.004  -0.038   0.000  -0.042
   37       -0.004  -0.032   0.000  -0.037
   38       -0.004  -0.032   0.000  -0.037
   39       -0.004  -0.032   0.000  -0.037
   40        0.004   0.032   0.000   0.037
   41        0.004   0.032   0.000   0.037
   42        0.004   0.032   0.000   0.037
   43        0.000  -0.000   0.000   0.000
   44        0.000  -0.000   0.000   0.000
   45        0.000  -0.000   0.000   0.000
   46       -0.000   0.000   0.000  -0.000
   47       -0.000   0.000   0.000  -0.000
   48       -0.000   0.000   0.000  -0.000
   49        0.000  -0.001   0.000  -0.001
   50        0.000  -0.001   0.000  -0.001
   51        0.000  -0.001   0.000  -0.001
   52       -0.000   0.001   0.000   0.001
   53       -0.000   0.001   0.000   0.001
   54       -0.000   0.001   0.000   0.001
   55       -0.000   0.001   0.000   0.001
   56       -0.000   0.001   0.000   0.001
   57       -0.000   0.001   0.000   0.001
   58        0.000  -0.001   0.000  -0.001
   59        0.000  -0.001   0.000  -0.001
   60        0.000  -0.001   0.000  -0.001
[...]
   94        0.000  -0.000   0.000  -0.000
   95        0.000  -0.000   0.000  -0.000
   96        0.000  -0.000   0.000  -0.000
   97        0.000  -0.000   0.000  -0.000
   98       -0.000   0.000   0.000   0.000
   99       -0.000   0.000   0.000   0.000
  100       -0.000   0.000   0.000   0.000
  101        0.000  -0.000   0.000  -0.000
  102       -0.000   0.000   0.000   0.000
  103        0.000   0.001   0.000   0.001
  104       -0.000  -0.001   0.000  -0.001
  105        0.000   0.001   0.000   0.001
  106       -0.000  -0.001   0.000  -0.001
  107       -0.000  -0.001   0.000  -0.001
  108        0.000   0.001   0.000   0.001
tot         -0.000   0.000  -0.000  -0.000