 vasp.6.2.1 16May21 (build Oct 06 2021 15:23:54) complex

 executed on     Narwhal-SCI@Navy date 2021.10.18  09:29:53

 INCAR:
   IVDW = 11           (DFT-D3 method of method with no damping)
   ISPIN = 2 (Spin polarised DFT)
   MAGMOM = 10 -10 -10 10 80*0.0d0
   ISTART = 1            (Read existing wavefunction
   ICHARG = 11         (Non-self-consistent: GGA/LDA band structures)
   LORBIT = 11
   LASPH = T
   GGA_COMPAT = .FALSE.
   LREAL = .FALSE.       (Projection operators: automatic)
   ENCUT = 708
   ENAUG = 708
   PREC = Accurate     (Precision level)
   LMAXMIX = 4
   ADDGRID = .TRUE.        (Increase grid
   LPLANE = .TRUE.      (Real space distribution
   NWRITE = 2           (Medium-level output)
   KPAR = 2           (Divides k-grid into separate groups)
   NSW = 000          (number of ionic steps)
   ISMEAR = 0            (gaussian smearing method )
   SIGMA = 0.05         (please check the width of the smearing)
   IBRION = -1            (Algorithm: 0-MD
   ISIF = 3            (optimize atomic coordinates and lattice parameters)
   EDIFFG = -0.005       (Ionic convergence
   EDIFF = 1.0d-10
   LDAU = .TRUE.
   LDAUTYPE = 2
   LDAUL = 2 -1 -1       -1  -1
   LDAUU = 6.5 0.00 0.00  0.00 0.0
   LDAUJ = 0.00 0.00 0.00 0.00 0.0
   LDAUPRINT = 2
   LCALCPOL = T

 POTCAR:    PAW_PBE Mn_pv 02Aug2007
 POTCAR:    PAW_PBE O 08Apr2002
 POTCAR:    PAW_PBE C 08Apr2002
 POTCAR:    PAW_PBE H 15Jun2001
 POTCAR:    PAW_PBE N 08Apr2002
 POTCAR:    PAW_PBE Mn_pv 02Aug2007
   VRHFIN =Mn: 3p4s3d

   TITEL  = PAW_PBE Mn_pv 02Aug2007
   POMASS =   54.938; ZVAL   =   13.000    mass and valenz
   ENMAX  =  269.864; ENMIN  =  202.398 eV

   TITEL  = PAW_PBE O 08Apr2002
   POMASS =   16.000; ZVAL   =    6.000    mass and valenz
   ENMAX  =  400.000; ENMIN  =  300.000 eV

[...]

   TITEL  = PAW_PBE H 15Jun2001
   POMASS =    1.000; ZVAL   =    1.000    mass and valenz
   ENMAX  =  250.000; ENMIN  =  200.000 eV

   TITEL  = PAW_PBE N 08Apr2002
   POMASS =   14.001; ZVAL   =    5.000    mass and valenz
   ENMAX  =  400.000; ENMIN  =  300.000 eV

  PAW_PBE Mn_pv 02Aug2007               :
  PAW_PBE O 08Apr2002                   :
  PAW_PBE C 08Apr2002                   :
  PAW_PBE H 15Jun2001                   :
  PAW_PBE N 08Apr2002                   :

 POSCAR: crystal
  positions in direct lattice
  velocities in cartesian coordinates
 exchange correlation table for  LEXCH =        8
   RHO(1)=    0.500       N(1)  =     2000
   RHO(2)=  100.500       N(2)  =     4000

 ion  position               nearest neighbor table
   1  0.000  0.500  0.000-   5 2.20   9 2.20  21 2.21  25 2.21  14 2.24  18 2.24
   2  0.500  0.500  0.500-   6 2.20  10 2.20  22 2.21  26 2.21  13 2.24  17 2.24
   3  0.000  0.000  0.000-   7 2.20  11 2.20  23 2.21  27 2.21  16 2.24  20 2.24
   4  0.500  0.000  0.500-   8 2.20  12 2.20  24 2.21  28 2.21  15 2.24  19 2.24
   5  0.094  0.579  0.216-  29 1.26   1 2.20
   6  0.406  0.421  0.716-  30 1.26   2 2.20
   7  0.906  0.079  0.784-  31 1.26   3 2.20
   8  0.594  0.921  0.284-  32 1.26   4 2.20
   9  0.906  0.421  0.784-  33 1.26   1 2.20
  10  0.594  0.579  0.284-  34 1.26   2 2.20
  11  0.094  0.921  0.216-  35 1.26   3 2.20
  12  0.406  0.079  0.716-  36 1.26   4 2.20
  13  0.259  0.563  0.424-  29 1.28   2 2.24
  14  0.241  0.437  0.924-  30 1.28   1 2.24
  15  0.741  0.063  0.576-  31 1.28   4 2.24
  16  0.759  0.937  0.076-  32 1.28   3 2.24
  17  0.741  0.437  0.576-  33 1.28   2 2.24
  18  0.759  0.563  0.076-  34 1.28   1 2.24
  19  0.259  0.937  0.424-  35 1.28   4 2.24
  20  0.241  0.063  0.924-  36 1.28   3 2.24
  21  0.973  0.344  0.137-  37 1.27   1 2.21
  22  0.527  0.656  0.637-  38 1.27   2 2.21
  23  0.027  0.844  0.863-  39 1.27   3 2.21
  24  0.473  0.156  0.363-  40 1.27   4 2.21
  25  0.027  0.656  0.863-  39 1.27   1 2.21
  26  0.473  0.344  0.363-  40 1.27   2 2.21
  27  0.973  0.156  0.137-  37 1.27   3 2.21
  28  0.527  0.844  0.637-  38 1.27   4 2.21
  29  0.211  0.535  0.286-  45 1.11   5 1.26  13 1.28
  30  0.289  0.465  0.786-  46 1.11   6 1.26  14 1.28
  31  0.789  0.035  0.714-  47 1.11   7 1.26  15 1.28
  32  0.711  0.965  0.214-  48 1.11   8 1.26  16 1.28
  33  0.789  0.465  0.714-  49 1.11   9 1.26  17 1.28
  34  0.711  0.535  0.214-  50 1.11  10 1.26  18 1.28
  35  0.211  0.965  0.286-  51 1.11  11 1.26  19 1.28
  36  0.289  0.035  0.786-  52 1.11  12 1.26  20 1.28
  37  0.987  0.250  0.067-  53 1.11  27 1.27  21 1.27
  38  0.513  0.750  0.567-  54 1.11  28 1.27  22 1.27
  39  0.013  0.750  0.933-  55 1.11  25 1.27  23 1.27
  40  0.487  0.250  0.433-  56 1.11  26 1.27  24 1.27
  41  0.914  0.750  0.471-  69 1.09  73 1.09  79 1.09  81 1.49
  42  0.586  0.250  0.971-  70 1.09  74 1.09  80 1.09  82 1.49
  43  0.086  0.250  0.529-  71 1.09  75 1.09  77 1.09  83 1.49
  44  0.414  0.750  0.029-  72 1.09  76 1.09  78 1.09  84 1.49
  45  0.279  0.467  0.226-  29 1.11
  46  0.221  0.533  0.726-  30 1.11
  47  0.721  0.967  0.774-  31 1.11
  48  0.779  0.033  0.274-  32 1.11
  49  0.721  0.533  0.774-  33 1.11
  50  0.779  0.467  0.274-  34 1.11
  51  0.279  0.033  0.226-  35 1.11
  52  0.221  0.967  0.726-  36 1.11
  53  0.011  0.250  0.939-  37 1.11
  54  0.489  0.750  0.439-  38 1.11
  55  0.989  0.750  0.061-  39 1.11
  56  0.511  0.250  0.561-  40 1.11
  57  0.082  0.750  0.652-  81 1.04
  58  0.418  0.250  0.152-  82 1.04
  59  0.918  0.250  0.348-  83 1.04
  60  0.582  0.750  0.848-  84 1.04
[...]
  70  0.585  0.250  0.842-  42 1.09
  71  0.085  0.250  0.658-  43 1.09
  72  0.415  0.750  0.158-  44 1.09
  73  0.853  0.675  0.515-  41 1.09
  74  0.647  0.325  0.015-  42 1.09
  75  0.147  0.175  0.485-  43 1.09
  76  0.353  0.825  0.985-  44 1.09
  77  0.147  0.325  0.485-  43 1.09
  78  0.353  0.675  0.985-  44 1.09
  79  0.853  0.825  0.515-  41 1.09
  80  0.647  0.175  0.015-  42 1.09
  81  0.082  0.750  0.529-  57 1.04  61 1.05  67 1.05  41 1.49
  82  0.418  0.250  0.029-  58 1.04  62 1.05  68 1.05  42 1.49
  83  0.918  0.250  0.471-  59 1.04  63 1.05  65 1.05  43 1.49
  84  0.582  0.750  0.971-  60 1.04  64 1.05  66 1.05  44 1.49

  LATTYP: Found a simple orthorhombic cell.
 ALAT       =     8.3283332753
 B/A-ratio  =     1.0168987778
 C/A-ratio  =     1.4335571810

  Lattice vectors:

 A1 = (  -8.3283332753,   0.0000000000,   0.0000000000)
 A2 = (   0.0000000000,   0.0000000000,   8.4690719290)
 A3 = (   0.0000000000,  11.9391419728,   0.0000000000)

Analysis of symmetry for initial positions (statically):
 Subroutine PRICEL returns:
 Original cell was already a primitive cell.

 Routine SETGRP: Setting up the symmetry group for a
 simple orthorhombic supercell.

 Subroutine GETGRP returns: Found  8 space group operations
 (whereof  2 operations were pure point group operations)
 out of a pool of  8 trial point group operations.

The static configuration has the point symmetry S_2 .
 The point group associated with its full space group is D_2h.

Analysis of symmetry for dynamics (positions and initial velocities):
 Subroutine PRICEL returns:
 Original cell was already a primitive cell.

[...]

The dynamic configuration has the point symmetry S_2 .
 The point group associated with its full space group is D_2h.

Analysis of structural, dynamic, and magnetic symmetry:
 Subroutine PRICEL returns:
 Original cell was already a primitive cell.

 Routine SETGRP: Setting up the symmetry group for a
 simple orthorhombic supercell.

 Subroutine GETGRP returns: Found  8 space group operations
 (whereof  2 operations were pure point group operations)
 out of a pool of  8 trial point group operations.

The overall configuration has the point symmetry S_2 .
 The point group associated with its full space group is D_2h.

 Subroutine INISYM returns: Found  8 space group operations
 (whereof  2 operations are pure point group operations),
 and found     1 'primitive' translations

                                     Primitive cell

  volume of cell :     842.1065

  direct lattice vectors                    reciprocal lattice vectors
     8.328333275  0.000000000  0.000000000     0.120072044  0.000000000  0.000000000
     0.000000000 11.939141973  0.000000000     0.000000000  0.083758113  0.000000000
     0.000000000  0.000000000  8.469071929     0.000000000  0.000000000  0.118076692

  length of vectors
     8.328333275 11.939141973  8.469071929     0.120072044  0.083758113  0.118076692

  position of ions in fractional coordinates (direct lattice)
     0.000000000  0.500000000  0.000000000
     0.500000000  0.500000000  0.500000000
     0.000000000  0.000000000  0.000000000
     0.500000000  0.000000000  0.500000000
     0.093655130  0.578990858  0.215806985
     0.406344870  0.421009142  0.715806985
     0.906344870  0.078990858  0.784193015
     0.593655130  0.921009142  0.284193015
     0.906344870  0.421009142  0.784193015
     0.593655130  0.578990858  0.284193015
     0.093655130  0.921009142  0.215806985
     0.406344870  0.078990858  0.715806985
     0.258675756  0.562801754  0.424348202
     0.241324244  0.437198246  0.924348202
     0.741324244  0.062801754  0.575651798
     0.758675756  0.937198246  0.075651798
     0.741324244  0.437198246  0.575651798
     0.758675756  0.562801754  0.075651798
     0.258675756  0.937198246  0.424348202
     0.241324244  0.062801754  0.924348202
     0.972524903  0.343661051  0.136886083
     0.527475097  0.656338949  0.636886083
     0.027475097  0.843661051  0.863113917
     0.472524903  0.156338949  0.363113917
     0.027475097  0.656338949  0.863113917
     0.472524903  0.343661051  0.363113917
     0.972524903  0.156338949  0.136886083
     0.527475097  0.843661051  0.636886083
     0.211113241  0.534838086  0.286304136
     0.288886759  0.465161914  0.786304136
     0.788886759  0.034838086  0.713695864
     0.711113241  0.965161914  0.213695864
     0.788886759  0.465161914  0.713695864
     0.711113241  0.534838086  0.213695864
     0.211113241  0.965161914  0.286304136
     0.288886759  0.034838086  0.786304136
     0.986693198  0.250000000  0.067248920
     0.513306802  0.750000000  0.567248920
     0.013306802  0.750000000  0.932751080
     0.486693198  0.250000000  0.432751080
     0.913811132  0.750000000  0.471286923
     0.586188868  0.250000000  0.971286923
     0.086188868  0.250000000  0.528713077
     0.413811132  0.750000000  0.028713077
     0.278950401  0.467380062  0.226248972
     0.221049599  0.532619938  0.726248972
     0.721049599  0.967380062  0.773751028
     0.778950401  0.032619938  0.273751028
     0.721049599  0.532619938  0.773751028
     0.778950401  0.467380062  0.273751028
     0.278950401  0.032619938  0.226248972
     0.221049599  0.967380062  0.726248972
     0.011490390  0.250000000  0.938667215
     0.488509610  0.750000000  0.438667215
     0.988509610  0.750000000  0.061332785
     0.511490390  0.250000000  0.561332785
     0.082168478  0.750000000  0.651573852
     0.417831522  0.250000000  0.151573852
     0.917831522  0.250000000  0.348426148
     0.582168478  0.750000000  0.848426148
[...]
     0.585038508  0.250000000  0.842370306
     0.085038508  0.250000000  0.657629694
     0.414961492  0.750000000  0.157629694
     0.852580043  0.675002885  0.514685854
[...]
  215        set_dd_paw                            0.665502                            1   3
  216          set_rsgf_all                          0.001246                          1   4
  217          m_sumb_d                              0.655176                          8   4
  218        strkin                                0.113209                            1   3
  219          m_sumb_d                              0.001858                          1   4
  220        strelo                                0.007672                            1   3
  221          m_sumb_d                              0.000922                          2   4
  222        strenl                              265.856853                            1   3
  223          spher                                42.464903                         19   4
  224          phase                                35.843548                        450   4
  225          proj1                               179.572698                       3600   4
  226            crexp_mul_wave                       86.261168                   302400   5
  227          m_sumb_d                              7.596377                          1   4
  228        fft3d_mpi                             0.084655                           22   3
  229          fftbas_plan_mpi                       0.082738                         22   4
  230            dfftw_execute                         0.025919                       66   5
  231            map_forward                           0.023108                       20   5
  232              map_gather                            0.003446                     10   6
  233              m_alltoallv_z                         0.015765                     10   6
  234              map_scatter                           0.003864                     10   6
  235            map_backward                          0.028910                       24   5
  236              map_gather                            0.006138                     12   6
  237              m_alltoallv_z                         0.020082                     12   6
  238              map_scatter                           0.002640                     12   6
  239        m_sumb_d                              0.003732                            5   3
  240        forhar                                0.033909                            2   3
  241          m_sumb_d                              0.002292                          2   4
  242        strehar                               0.005164                            1   3
  243          m_sumb_d                              0.000059                          1   4
  244        chggra                                0.016931                            1   3
  245          fft3d_mpi                             0.010930                          3   4
  246            fftbas_plan_mpi                       0.010675                        3   5
  247              dfftw_execute                         0.003632                      9   6
  248              map_backward                          0.001668                      2   6
  249                map_gather                            0.000455                    1   7
  250                m_alltoallv_z                         0.001125                    1   7
  251                map_scatter                           0.000086                    1   7
  252              map_forward                           0.004680                      4   6
  253                map_gather                            0.000499                    2   7
  254                m_alltoallv_z                         0.003494                    2   7
  255                map_scatter                           0.000678                    2   7
  256          m_sumb_d                              0.000014                          2   4
  257          pothar                                0.000613                          1   4
  258            m_sumb_d                              0.000410                        1   5
  259        m_bcast_d                             0.583370                            2   3
  260      potlok                                0.260261                              1   2
  261        fft3d_mpi                             0.137382                           26   3
  262          fftbas_plan_mpi                       0.129926                         26   4
  263            dfftw_execute                         0.037653                       78   5
  264            map_forward                           0.035210                       28   5
  265              map_gather                            0.003554                     16   6
  266              m_alltoallv_z                         0.023917                     16   6
  267              map_scatter                           0.007692                     16   6
  268            map_backward                          0.051868                       24   5
  269              map_gather                            0.005351                     12   6
  270              m_alltoallv_z                         0.043923                     12   6
  271              map_scatter                           0.002554                     12   6
  272        m_sumb_d                              0.000314                            5   3
  273        pothar                                0.000950                            1   3
  274          m_sumb_d                              0.000547                          1   4
  275        m_bcast_d                             0.029633                            2   3
  276      potlok_metagga                        0.000004                              1   2
  277      set_dd_magatom                        0.000352                              1   2
  278      set_dd_paw                            0.561010                              1   2
  279        set_rsgf_all                          0.000901                            1   3
  280        m_sumb_d                              0.553997                            8   3
  281      densta                                0.042000                              1   2
  282        m_sumb_d                              0.019181                           13   3

 Flat profile

 fft3d                                1252.189584       62700
 gemm                                  588.036269     1072512
 proj1                                 543.454609       13168
 calc_polarization                     537.133710           1
 m_alltoall_d                          397.341106      207648
 work_mul_crexp                        394.801345     1072512
 crexp_mul_wave                        335.079174     1106112
 fftwav                                322.831593       31500
 eddav                                 299.799435           9
 vhamil                                267.012853       12768
 total_time                            146.337983           1
 m_bcast_z                             139.722938      105583
 orth1                                 133.421804       38704
 phase                                 121.966237        1451
 m_sumb_d                              102.901319       97299
 redis_pw                               52.083385       65392
 spher                                  45.387422          20
 fornl                                  43.233536           1
 eccp                                   42.491732        3600
 fftext_mpi                             28.905206       31200
 pdssyex_zheevx                         16.996627         900
 sphpro_fast                            14.369724           2
 lincom                                 13.185236        1000
 w1_copy                                 7.994803       43104
 setdij_                                 6.835540          29
 hamiltmu                                6.275939       12768
 kinhamil                                3.005666       12768
 apply_precond                           2.797655        9168
 vnlac0                                  2.633432       12768
 overl1                                  2.473815       12768
 pw_charge                               2.356663         300
 m_alltoallv_z                           2.052923         210
 map_scatter                             1.622427         210
 force_and_stress                        1.569247           1
 overl                                   1.241057       22036
 elmin                                   1.190516           1
 m_bcast_d                               1.078194       25869
 dfftw_execute                           0.921375         612
 setup_precond                           0.650444        3600
 fft3d_mpi                               0.599322       31404
 redis_proj                              0.498134       74660
 augmentation_charge                     0.484813           1
 map_gather                              0.460781         210
 strenl                                  0.379327           1
 choleski                                0.346929         100
 potlok                                  0.200490           2
 newband                                 0.182174       13668
 fftwav_mpi                              0.157383       31500
 fftbas_plan_mpi                         0.116031         204
 strkin                                  0.111351           1
 set_charge                              0.110295           1
 orthch                                  0.077981           1
 densta                                  0.050881          10
 soft_charge                             0.048380           1
 truncate_high_frequency_w1              0.047653       16368
 w1_projall                              0.045329        9168
 fewald                                  0.038323           1
 forhar                                  0.031617           2
 stufak                                  0.030016           2
 set_dd_paw                              0.027590           3
 forloc                                  0.017425           1
 strelo                                  0.006750           1
 fordep                                  0.006007           1
 inisym                                  0.005917           1
 chggra                                  0.005374           1
 strehar                                 0.005105           1
 proj                                    0.004004          50
 map_backward                            0.003822         202
 map_forward                             0.003494         206
 set_rsgf_all                            0.003451           3
 depsum                                  0.002223           1
 pothar                                  0.001583           3
 set_dd_magatom                          0.001160           3
 fft_gq                                  0.000511           1
 rsp                                     0.000412           1
 FERMAT_RAZOR                            0.000385           1
 vectorpot                               0.000297           2
 rcp                                     0.000115           1
 posmap                                  0.000048           2
 crpa_reader                             0.000026           1
 potlok_metagga                          0.000005           2
 rotate_active_occupied_orbital          0.000001           1
 redis_pw_over_bands                     0.000000           1
  summed up times    5887.49543404579

 Accumulative profile

 total_time                           5887.495434           1
 elmin                                3543.105390           1
 eddav                                3540.568792           9
 calc_polarization                    1662.704806           1
 hamiltmu                             1497.374353       12768
 fft3d                                1252.189584       62700
 vnlac0                                985.471046       12768
 fftwav_mpi                            980.818963       31500
 fftwav                                980.661580       31500
 proj1                                 878.533783       13168
 w1_projall                            676.636786        9168
 fftext_mpi                            623.589261       31200
 fft3d_mpi                             600.139772       31404
 gemm                                  588.036269     1072512
 m_alltoall_d                          397.341106      207648
 work_mul_crexp                        394.801345     1072512
 force_and_stress                      342.078433           1
 crexp_mul_wave                        335.079174     1106112
 redis_pw                              272.694797       65392
 vhamil                                267.012853       12768
 strenl                                265.856853           1
 kinhamil                              236.140700       12768
 redis_proj                            177.227828       74660
 newband                               168.308859       13668
 m_bcast_z                             139.722938      105583
 orth1                                 133.421804       38704
 phase                                 121.966237        1451
 m_sumb_d                              102.901319       97299
 fornl                                  48.561124           1
 spher                                  45.387422          20
 eccp                                   42.491732        3600
 proj                                   22.373631          50
 pdssyex_zheevx                         16.997012         900
 sphpro_fast                            15.107796           2
 set_charge                             13.484316           1
 lincom                                 13.185236        1000
 soft_charge                            12.610459           1
 setdij_                                12.502953          29
 w1_copy                                 7.994803       43104
 fftbas_plan_mpi                         5.180853         204
 orthch                                  4.528172           1
 apply_precond                           2.797655        9168
 map_forward                             2.603977         206
 fordep                                  2.483197           1
 overl1                                  2.473815       12768
 pw_charge                               2.356663         300
 m_alltoallv_z                           2.052923         210
 set_dd_paw                              1.778414           3
 map_scatter                             1.622427         210
 map_backward                            1.539470         202
 overl                                   1.241057       22036
 m_bcast_d                               1.078194       25869
 dfftw_execute                           0.921375         612
 setup_precond                           0.650444        3600
 augmentation_charge                     0.640468           1
 potlok                                  0.531141           2
 map_gather                              0.460781         210
 choleski                                0.346929         100
 strkin                                  0.113209           1
 depsum                                  0.102656           1
 densta                                  0.086785          10
 truncate_high_frequency_w1              0.047653       16368
 fewald                                  0.039340           1
 forhar                                  0.033909           2
 stufak                                  0.030016           2
 fft_gq                                  0.020865           1
 forloc                                  0.017483           1
 chggra                                  0.016931           1
 strelo                                  0.007672           1
 inisym                                  0.005965           1
 strehar                                 0.005164           1
 set_rsgf_all                            0.003451           3
 pothar                                  0.002727           3
 set_dd_magatom                          0.001160           3
 rsp                                     0.000412           1
 FERMAT_RAZOR                            0.000385           1
 vectorpot                               0.000297           2
 rcp                                     0.000115           1
 posmap                                  0.000048           2
 crpa_reader                             0.000026           1
 potlok_metagga                          0.000005           2
 rotate_active_occupied_orbital          0.000001           1
 redis_pw_over_bands                     0.000000           1

Profiling took   1.704419  0.715850  0.003044  0.001683 seconds
Profiling took   2.278887 seconds