 vasp.5.4.4.18Apr17-6-g9f103f2a35 (build Apr 27 2017 14:21:45) complex

 executed on      LinuxIFC_2017xe date 2022.03.19  13:42:51

 INCAR:
 POTCAR:   PAW_PBE Co 06Sep2000
 POTCAR:   PAW_PBE O 08Apr2002
 POTCAR:   PAW_PBE C 08Apr2002
 POTCAR:   PAW_PBE H 15Jun2001
 POTCAR:   PAW_PBE N 08Apr2002

 POTCAR:   PAW_PBE Co 06Sep2000
   VRHFIN =Co: d8 s1

   TITEL  = PAW_PBE Co 06Sep2000
   POMASS =   58.933; ZVAL   =    9.000    mass and valenz
   ENMAX  =  267.969; ENMIN  =  200.977 eV
   QCUT   =   -4.438; QGAM   =    8.876    optimization parameters

   Description
     l     E      TYP  RCUT    TYP  RCUT
     2   .000     23  2.300
     2   .000     23  2.300
     0   .000     23  2.300
     0   .000     23  2.300
     1  -.200     23  2.300
     1   .000     23  2.300
     3   .000      7   .000

 POTCAR:   PAW_PBE O 08Apr2002
   VRHFIN =O: s2p4

   TITEL  = PAW_PBE O 08Apr2002
   POMASS =   16.000; ZVAL   =    6.000    mass and valenz
   ENMAX  =  400.000; ENMIN  =  300.000 eV
   QCUT   =   -5.520; QGAM   =   11.041    optimization parameters

[...]

 POTCAR:   PAW_PBE C 08Apr2002
   VRHFIN =C: s2p2

[...]

 POTCAR:   PAW_PBE H 15Jun2001
   VRHFIN =H: ultrasoft test

   TITEL  = PAW_PBE H 15Jun2001
   POMASS =    1.000; ZVAL   =    1.000    mass and valenz
   ENMAX  =  250.000; ENMIN  =  200.000 eV
   QCUT   =   -5.749; QGAM   =   11.498    optimization parameters

[...]

 POTCAR:   PAW_PBE N 08Apr2002
   VRHFIN =N: s2p3

   TITEL  = PAW_PBE N 08Apr2002
   POMASS =   14.001; ZVAL   =    5.000    mass and valenz
   ENMAX  =  400.000; ENMIN  =  300.000 eV
   QCUT   =   -5.562; QGAM   =   11.124    optimization parameters

   Description
     l     E      TYP  RCUT    TYP  RCUT
     0   .000     23  1.200
     0   .000     23  1.200
     1   .000     23  1.500
     1   .700     23  1.500
     2   .000      7  1.500

 PAW_PBE Co 06Sep2000                   :
 PAW_PBE O 08Apr2002                    :
 PAW_PBE C 08Apr2002                    :
 PAW_PBE H 15Jun2001                    :
 PAW_PBE N 08Apr2002                    :

 POSCAR: C3 H8 Co N2 O6
  positions in direct lattice
  velocities in cartesian coordinates
 exchange correlation table for  LEXCH =        8
   RHO(1)=    0.500       N(1)  =     2000
   RHO(2)=  100.500       N(2)  =     4000

 ion  position               nearest neighbor table
   1  1.000  0.253  0.001-  10 2.10  13 2.10   5 2.11  18 2.12  28 2.14  21 2.14
   2  1.000  0.747  0.501-   9 2.10  14 2.10   6 2.11  17 2.12  27 2.14  22 2.14
   3  0.500  0.753  0.001-  12 2.10  15 2.10   7 2.11  20 2.12  26 2.14  23 2.14
   4  0.500  0.247  0.501-  11 2.10  16 2.10   8 2.11  19 2.12  25 2.14  24 2.14
   5  0.156  0.143  0.161-  33 1.26   1 2.11
   6  0.156  0.857  0.661-  34 1.26   2 2.11
   7  0.656  0.643  0.161-  35 1.26   3 2.11
   8  0.656  0.357  0.661-  36 1.26   4 2.11
   9  0.049  0.524  0.636-  37 1.27   2 2.10
  10  0.049  0.476  0.136-  38 1.27   1 2.10
  11  0.549  0.024  0.636-  39 1.27   4 2.10
  12  0.549  0.976  0.136-  40 1.27   3 2.10
  13  0.048  0.333  0.821-  37 1.27   1 2.10
  14  0.048  0.667  0.321-  38 1.27   2 2.10
  15  0.548  0.833  0.821-  39 1.27   3 2.10
  16  0.548  0.167  0.321-  40 1.27   4 2.10
  17  0.943  0.968  0.354-  41 1.26   2 2.12
  18  0.943  0.032  0.854-  42 1.26   1 2.12
  19  0.443  0.468  0.354-  43 1.26   4 2.12
  20  0.443  0.532  0.854-  44 1.26   3 2.12
  21  0.947  0.163  0.177-  41 1.28   1 2.14
  22  0.947  0.837  0.677-  42 1.28   2 2.14
  23  0.447  0.663  0.177-  43 1.28   3 2.14
  24  0.447  0.337  0.677-  44 1.28   4 2.14
  25  0.340  0.139  0.339-  33 1.28   4 2.14
  26  0.340  0.861  0.839-  34 1.28   3 2.14
  27  0.840  0.639  0.339-  35 1.28   2 2.14
  28  0.840  0.361  0.839-  36 1.28   1 2.14
  29  0.693  0.278  0.092-  57 1.09  53 1.09  49 1.09  93 1.48
  30  0.693  0.722  0.592-  58 1.09  54 1.09  50 1.09  94 1.48
  31  0.193  0.778  0.092-  59 1.09  55 1.09  51 1.09  95 1.48
  32  0.193  0.222  0.592-  60 1.09  56 1.09  52 1.09  96 1.48
  33  0.248  0.214  0.250-  61 1.11   5 1.26  25 1.28
  34  0.248  0.786  0.750-  62 1.11   6 1.26  26 1.28
  35  0.748  0.714  0.250-  63 1.11   7 1.26  27 1.28
  36  0.748  0.286  0.750-  64 1.11   8 1.26  28 1.28
  37  0.034  0.477  0.762-  65 1.11   9 1.27  13 1.27
  38  0.034  0.523  0.262-  66 1.11  10 1.27  14 1.27
  39  0.534  0.977  0.762-  67 1.11  11 1.27  15 1.27
  40  0.534  0.023  0.262-  68 1.11  12 1.27  16 1.27
  41  0.977  0.025  0.256-  69 1.11  17 1.26  21 1.28
  42  0.977  0.975  0.756-  70 1.11  18 1.26  22 1.28
  43  0.477  0.525  0.256-  71 1.11  19 1.26  23 1.28
  44  0.477  0.475  0.756-  72 1.11  20 1.26  24 1.28
  45  0.805  0.236  0.423-  81 1.09  89 1.09  85 1.09  93 1.48
  46  0.805  0.764  0.923-  82 1.09  90 1.09  86 1.09  94 1.48
  47  0.305  0.736  0.423-  83 1.09  91 1.09  87 1.09  95 1.48
  48  0.305  0.264  0.923-  84 1.09  92 1.09  88 1.09  96 1.48
  49  0.685  0.148  0.065-  29 1.09
  50  0.685  0.852  0.565-  30 1.09
  51  0.185  0.648  0.065-  31 1.09
  52  0.185  0.352  0.565-  32 1.09
  53  0.692  0.345  0.982-  29 1.09
  54  0.692  0.655  0.482-  30 1.09
  55  0.192  0.845  0.982-  31 1.09
  56  0.192  0.155  0.482-  32 1.09
  57  0.625  0.319  0.110-  29 1.09
  58  0.625  0.681  0.610-  30 1.09
  59  0.125  0.819  0.110-  31 1.09
  60  0.125  0.181  0.610-  32 1.09
[...]
  82  0.885  0.736  0.043-  46 1.09
  83  0.385  0.764  0.543-  47 1.09
  84  0.385  0.236  0.043-  48 1.09
  85  0.795  0.105  0.406-  45 1.09
  86  0.795  0.895  0.906-  46 1.09
  87  0.295  0.605  0.406-  47 1.09
  88  0.295  0.395  0.906-  48 1.09
  89  0.737  0.287  0.435-  45 1.09
  90  0.737  0.713  0.935-  46 1.09
  91  0.237  0.787  0.435-  47 1.09
  92  0.237  0.213  0.935-  48 1.09
  93  0.800  0.308  0.262-  77 1.06  73 1.06  29 1.48  45 1.48
  94  0.800  0.692  0.762-  78 1.06  74 1.06  30 1.48  46 1.48
  95  0.300  0.808  0.262-  79 1.06  75 1.06  31 1.48  47 1.48
  96  0.300  0.192  0.762-  80 1.06  76 1.06  32 1.48  48 1.48

  LATTYP: Found a simple monoclinic cell.
 ALAT       =    15.6776655767
 B/A-ratio  =     0.5258606364
 C/A-ratio  =     1.4153128759
 COS(beta)  =    -0.9540426593

  Lattice vectors:

 A1 = (  -5.1981456320,   0.0000000000, -14.7908241800)
 A2 = (   0.0000000000,  -8.2442671979,   0.0000000000)
 A3 = (   0.7456918087,   0.0000000000,  22.1762683042)

Analysis of symmetry for initial positions (statically):
 Subroutine PRICEL returns following result:

  LATTYP: Found a base centered monoclinic cell.
 ALAT       =    14.1030690222
 B/A-ratio  =     0.5845725625
 C/A-ratio  =     1.7646639294
 COS(beta)  =    -0.8243554175

[...]

   2 primitive cells build up your supercell.

 Routine SETGRP: Setting up the symmetry group for a
 simple monoclinic supercell.

 Subroutine GETGRP returns: Found  2 space group operations
 (whereof  1 operations were pure point group operations)
 out of a pool of  4 trial point group operations.

The static configuration has the point symmetry C_1 .
 The point group associated with its full space group is C_1h.

Analysis of symmetry for dynamics (positions and initial velocities):
 Subroutine PRICEL returns following result:

[...]

The dynamic configuration has the point symmetry C_1 .
 The point group associated with its full space group is C_1h.

Analysis of structural, dynamic, and magnetic symmetry:
 Subroutine PRICEL returns following result:

  LATTYP: Found a base centered monoclinic cell.
 ALAT       =    14.1030690222
 B/A-ratio  =     0.5845725625
 C/A-ratio  =     1.7646639294
 COS(beta)  =    -0.8243554175

  Lattice vectors:

 A1 = (   7.0515274635,   4.1221348836,   0.0099695905)
 A2 = (   7.0515274635,  -4.1221323143,   0.0099695905)
 A3 = ( -23.7536560307,  -0.0000051385,  -7.4253224863)

   2 primitive cells build up your supercell.

 Routine SETGRP: Setting up the symmetry group for a
 simple monoclinic supercell.

 Subroutine GETGRP returns: Found  2 space group operations
 (whereof  1 operations were pure point group operations)
 out of a pool of  4 trial point group operations.

The magnetic configuration has the point symmetry C_1 .
 The point group associated with its full space group is C_1h.

 Subroutine INISYM returns: Found  2 space group operations
 (whereof  1 operations are pure point group operations),
 and found     2 'primitive' translations

 KPOINTS: Automatic mesh

Automatic generation of k-mesh.
Space group operators:
 irot       det(A)        alpha          n_x          n_y          n_z        tau_x        tau_y        tau_z
    1     1.000000     0.000000     1.000000     0.000000     0.000000     0.000000     0.000000     0.000000
    2    -1.000000   180.000000     0.000000     1.000000     0.000000    -1.000001    -0.000001    -0.500001

 Subroutine IBZKPT returns following result:

 Found      8 irreducible k-points:

 Following reciprocal coordinates:
            Coordinates               Weight
  0.250000  0.125000  0.125000      4.000000
 -0.250000  0.125000  0.125000      4.000000
  0.250000  0.375000  0.125000      4.000000
 -0.250000  0.375000  0.125000      4.000000
  0.250000  0.125000  0.375000      4.000000
 -0.250000  0.125000  0.375000      4.000000
  0.250000  0.375000  0.375000      4.000000
 -0.250000  0.375000  0.375000      4.000000

 Following cartesian coordinates:
            Coordinates               Weight
  0.017688  0.015162  0.027589      4.000000
 -0.017735  0.015162  0.006233      4.000000
  0.017688  0.045486  0.027589      4.000000
 -0.017735  0.045486  0.006233      4.000000
  0.017640  0.015162  0.061410      4.000000
 -0.017783  0.015162  0.040055      4.000000
  0.017640  0.045486  0.061410      4.000000
 -0.017783  0.045486  0.040055      4.000000

 Subroutine IBZKPT_HF returns following result:

 Found     32 k-points in 1st BZ
 the following     32 k-points will be used (e.g. in the exchange kernel)
 Following reciprocal coordinates:   # in IRBZ
  0.250000  0.125000  0.125000    0.03125000   1 t-inv F
 -0.250000  0.125000  0.125000    0.03125000   2 t-inv F
  0.250000  0.375000  0.125000    0.03125000   3 t-inv F
 -0.250000  0.375000  0.125000    0.03125000   4 t-inv F
  0.250000  0.125000  0.375000    0.03125000   5 t-inv F
 -0.250000  0.125000  0.375000    0.03125000   6 t-inv F
  0.250000  0.375000  0.375000    0.03125000   7 t-inv F
 -0.250000  0.375000  0.375000    0.03125000   8 t-inv F
  0.250000 -0.125000  0.125000    0.03125000   1 t-inv F spinflp
 -0.250000 -0.125000  0.125000    0.03125000   2 t-inv F spinflp
  0.250000 -0.375000  0.125000    0.03125000   3 t-inv F spinflp
 -0.250000 -0.375000  0.125000    0.03125000   4 t-inv F spinflp
  0.250000 -0.125000  0.375000    0.03125000   5 t-inv F spinflp
 -0.250000 -0.125000  0.375000    0.03125000   6 t-inv F spinflp
  0.250000 -0.375000  0.375000    0.03125000   7 t-inv F spinflp
 -0.250000 -0.375000  0.375000    0.03125000   8 t-inv F spinflp
 -0.250000 -0.125000 -0.125000    0.03125000   1 t-inv T
 -0.250000  0.125000 -0.125000    0.03125000   1 t-inv T spinflp
  0.250000 -0.125000 -0.125000    0.03125000   2 t-inv T
  0.250000  0.125000 -0.125000    0.03125000   2 t-inv T spinflp
 -0.250000 -0.375000 -0.125000    0.03125000   3 t-inv T
[...]
   0.905E+02 0.882E+02 0.992E+01   -.955E+02 -.124E+03 -.275E+02   0.506E+01 0.361E+02 0.176E+02   -.683E-04 -.570E-04 0.386E-04
   -.207E+02 0.106E+03 -.172E+02   0.483E+02 -.128E+03 0.377E+02   -.276E+02 0.221E+02 -.205E+02   -.774E-04 0.147E-03 -.590E-04
   -.207E+02 -.106E+03 -.172E+02   0.483E+02 0.128E+03 0.377E+02   -.276E+02 -.221E+02 -.205E+02   -.774E-04 -.147E-03 -.589E-04
   -.207E+02 0.106E+03 -.172E+02   0.483E+02 -.128E+03 0.377E+02   -.276E+02 0.221E+02 -.205E+02   -.789E-04 0.147E-03 -.598E-04
   -.207E+02 -.106E+03 -.172E+02   0.483E+02 0.128E+03 0.377E+02   -.276E+02 -.221E+02 -.205E+02   -.789E-04 -.147E-03 -.598E-04
   0.381E+02 0.267E+02 0.662E+02   -.418E+02 -.276E+02 -.713E+02   0.368E+01 0.942E+00 0.508E+01   -.212E-05 0.658E-05 -.463E-04
   0.381E+02 -.267E+02 0.662E+02   -.418E+02 0.276E+02 -.713E+02   0.368E+01 -.942E+00 0.508E+01   -.204E-05 -.658E-05 -.464E-04
   0.381E+02 0.267E+02 0.662E+02   -.418E+02 -.276E+02 -.713E+02   0.368E+01 0.942E+00 0.508E+01   -.181E-05 0.662E-05 -.463E-04
   0.381E+02 -.267E+02 0.662E+02   -.418E+02 0.276E+02 -.713E+02   0.368E+01 -.942E+00 0.508E+01   -.188E-05 -.662E-05 -.462E-04
   -.831E+00 -.133E+03 -.791E+00   0.839E+00 0.140E+03 0.738E+00   -.673E-02 -.712E+01 0.492E-01   -.118E-04 -.736E-04 -.102E-04
   -.833E+00 0.133E+03 -.789E+00   0.842E+00 -.140E+03 0.741E+00   -.673E-02 0.712E+01 0.492E-01   -.118E-04 0.736E-04 -.102E-04
   -.835E+00 -.133E+03 -.788E+00   0.843E+00 0.140E+03 0.739E+00   -.673E-02 -.712E+01 0.492E-01   -.124E-04 -.736E-04 -.106E-04
   -.832E+00 0.133E+03 -.789E+00   0.839E+00 -.140E+03 0.737E+00   -.673E-02 0.712E+01 0.492E-01   -.124E-04 0.736E-04 -.106E-04
   0.432E+02 -.765E+02 -.578E+02   -.473E+02 0.810E+02 0.605E+02   0.417E+01 -.443E+01 -.267E+01   -.477E-04 -.305E-05 0.247E-04
   0.432E+02 0.765E+02 -.578E+02   -.474E+02 -.810E+02 0.605E+02   0.417E+01 0.443E+01 -.267E+01   -.478E-04 0.309E-05 0.248E-04
   0.432E+02 -.765E+02 -.578E+02   -.474E+02 0.809E+02 0.605E+02   0.417E+01 -.443E+01 -.267E+01   -.471E-04 -.308E-05 0.252E-04
   0.432E+02 0.765E+02 -.578E+02   -.474E+02 -.810E+02 0.605E+02   0.417E+01 0.443E+01 -.267E+01   -.470E-04 0.305E-05 0.251E-04
   -.936E+02 0.611E+02 0.191E+02   0.997E+02 -.652E+02 -.199E+02   -.613E+01 0.405E+01 0.818E+00   0.222E-04 0.445E-05 0.278E-05
   -.936E+02 -.611E+02 0.191E+02   0.997E+02 0.652E+02 -.199E+02   -.613E+01 -.405E+01 0.818E+00   0.223E-04 -.449E-05 0.261E-05
   -.936E+02 0.611E+02 0.191E+02   0.997E+02 -.652E+02 -.199E+02   -.613E+01 0.405E+01 0.818E+00   0.232E-04 0.450E-05 0.319E-05
   -.936E+02 -.611E+02 0.191E+02   0.997E+02 0.652E+02 -.199E+02   -.613E+01 -.405E+01 0.818E+00   0.231E-04 -.445E-05 0.333E-05
   0.423E+02 0.388E+02 -.585E+02   -.451E+02 -.413E+02 0.637E+02   0.280E+01 0.245E+01 -.523E+01   -.264E-04 0.577E-06 0.494E-04
   0.423E+02 -.388E+02 -.585E+02   -.451E+02 0.413E+02 0.637E+02   0.280E+01 -.245E+01 -.523E+01   -.264E-04 -.583E-06 0.495E-04
   0.423E+02 0.388E+02 -.585E+02   -.451E+02 -.413E+02 0.637E+02   0.280E+01 0.245E+01 -.523E+01   -.256E-04 0.607E-06 0.500E-04
   0.423E+02 -.388E+02 -.585E+02   -.451E+02 0.413E+02 0.637E+02   0.280E+01 -.245E+01 -.523E+01   -.255E-04 -.613E-06 0.499E-04
   -.176E+01 0.453E+02 0.116E+02   0.164E+01 -.510E+02 -.128E+02   0.120E+00 0.569E+01 0.115E+01   0.417E-05 0.219E-05 -.470E-05
   -.176E+01 -.453E+02 0.116E+02   0.164E+01 0.510E+02 -.128E+02   0.120E+00 -.569E+01 0.115E+01   0.419E-05 -.220E-05 -.472E-05
   -.176E+01 0.453E+02 0.116E+02   0.164E+01 -.510E+02 -.128E+02   0.120E+00 0.569E+01 0.115E+01   0.424E-05 0.218E-05 -.470E-05
   -.176E+01 -.453E+02 0.116E+02   0.164E+01 0.510E+02 -.128E+02   0.120E+00 -.569E+01 0.115E+01   0.422E-05 -.218E-05 -.467E-05
   -.143E+02 -.199E+02 0.285E+02   0.167E+02 0.228E+02 -.329E+02   -.241E+01 -.292E+01 0.443E+01   0.370E-05 0.339E-06 -.425E-05
   -.143E+02 0.199E+02 0.285E+02   0.167E+02 -.228E+02 -.329E+02   -.241E+01 0.292E+01 0.443E+01   0.373E-05 -.332E-06 -.428E-05
   -.143E+02 -.199E+02 0.285E+02   0.167E+02 0.228E+02 -.329E+02   -.241E+01 -.292E+01 0.443E+01   0.379E-05 0.352E-06 -.426E-05
   -.143E+02 0.199E+02 0.285E+02   0.167E+02 -.228E+02 -.329E+02   -.241E+01 0.292E+01 0.443E+01   0.377E-05 -.353E-06 -.422E-05
   0.425E+02 -.715E+01 -.421E+00   -.481E+02 0.892E+01 0.102E+01   0.557E+01 -.178E+01 -.581E+00   0.277E-06 0.258E-05 -.327E-05
   0.425E+02 0.715E+01 -.422E+00   -.481E+02 -.892E+01 0.102E+01   0.557E+01 0.178E+01 -.581E+00   0.281E-06 -.258E-05 -.328E-05
   0.425E+02 -.715E+01 -.421E+00   -.481E+02 0.892E+01 0.102E+01   0.557E+01 -.178E+01 -.581E+00   0.215E-06 0.259E-05 -.331E-05
   0.425E+02 0.715E+01 -.421E+00   -.481E+02 -.892E+01 0.102E+01   0.557E+01 0.178E+01 -.581E+00   0.216E-06 -.259E-05 -.330E-05
[...]
   -.177E+02 -.352E+01 -.269E+02   0.208E+02 0.469E+01 0.317E+02   -.314E+01 -.117E+01 -.483E+01   -.480E-05 0.143E-05 0.250E-05
   -.177E+02 0.352E+01 -.269E+02   0.208E+02 -.469E+01 0.317E+02   -.314E+01 0.117E+01 -.483E+01   -.478E-05 -.143E-05 0.246E-05
   0.121E+02 0.461E+02 0.906E+00   -.124E+02 -.519E+02 -.149E+01   0.310E+00 0.577E+01 0.576E+00   -.339E-05 -.368E-06 0.545E-05
   0.121E+02 -.461E+02 0.906E+00   -.124E+02 0.519E+02 -.149E+01   0.310E+00 -.577E+01 0.576E+00   -.341E-05 0.358E-06 0.547E-05
   0.121E+02 0.461E+02 0.906E+00   -.124E+02 -.519E+02 -.150E+01   0.310E+00 0.577E+01 0.576E+00   -.321E-05 -.371E-06 0.559E-05
   0.121E+02 -.461E+02 0.906E+00   -.124E+02 0.519E+02 -.149E+01   0.310E+00 -.577E+01 0.576E+00   -.320E-05 0.371E-06 0.557E-05
   0.362E+02 -.144E+02 -.558E+01   -.417E+02 0.165E+02 0.607E+01   0.543E+01 -.211E+01 -.496E+00   -.216E-05 0.194E-05 0.819E-05
   0.362E+02 0.144E+02 -.558E+01   -.417E+02 -.165E+02 0.607E+01   0.543E+01 0.211E+01 -.496E+00   -.219E-05 -.194E-05 0.823E-05
   0.362E+02 -.144E+02 -.558E+01   -.417E+02 0.165E+02 0.607E+01   0.543E+01 -.211E+01 -.496E+00   -.207E-05 0.196E-05 0.830E-05
   0.362E+02 0.144E+02 -.558E+01   -.417E+02 -.165E+02 0.607E+01   0.543E+01 0.211E+01 -.496E+00   -.204E-05 -.196E-05 0.827E-05
   -.204E+02 -.737E+01 0.468E+00   0.223E+02 0.859E+01 -.216E+00   -.185E+01 -.122E+01 -.252E+00   0.199E-04 0.287E-04 -.533E-05
   -.204E+02 0.737E+01 0.464E+00   0.223E+02 -.859E+01 -.217E+00   -.185E+01 0.122E+01 -.252E+00   0.199E-04 -.287E-04 -.539E-05
   -.204E+02 -.738E+01 0.467E+00   0.223E+02 0.859E+01 -.217E+00   -.185E+01 -.122E+01 -.252E+00   0.210E-04 0.288E-04 -.476E-05
   -.204E+02 0.737E+01 0.470E+00   0.223E+02 -.859E+01 -.217E+00   -.185E+01 0.122E+01 -.252E+00   0.209E-04 -.288E-04 -.470E-05
   -.294E+02 -.177E+00 -.416E+02   0.711E-14 0.716E-12 -.153E-12   0.294E+02 0.444E-14 0.416E+02   -.286E-03 0.316E-06 0.358E-04

 POSITION                                       TOTAL-FORCE (eV/Angst)
     14.09687      2.08366      0.02746         0.000525     -0.002517     -0.000130
     11.87064      6.16061      3.72018         0.000525      0.002517     -0.000130
      7.04534      6.20579      0.01749         0.000525     -0.002517     -0.000130
      4.81912      2.03847      3.71021         0.000525      0.002517     -0.000130
      1.48355      1.17728      1.19559         0.000007      0.001877      0.000531
     -0.74267      7.06699      4.88831         0.000007     -0.001877      0.000531
      8.53508      5.29941      1.20555         0.000007      0.001877      0.000531
      6.30886      2.94485      4.89828         0.000007     -0.001877      0.000531
     -2.13647      4.31854      4.69968        -0.000254     -0.002251      0.002143
      0.08975      3.92573      1.00695        -0.000254      0.002251      0.002143
      4.91504      0.19640      4.70965        -0.000254     -0.002251      0.002143
      7.14127      8.04786      1.01693        -0.000254      0.002251      0.002143
     -2.97182      2.74428      6.06192        -0.000007      0.001421     -0.003070
     -0.74559      5.50000      2.36920        -0.000007     -0.001421     -0.003070
      4.07971      6.86640      6.07189        -0.000007      0.001421     -0.003070
      6.30593      1.37786      2.37917        -0.000007     -0.001421     -0.003070
     11.71903      7.97790      2.63170        -0.000955      0.001239     -0.001850
      9.49281      0.26637      6.32441        -0.000955     -0.001239     -0.001850
      4.66751      3.85577      2.62172        -0.000955      0.001239     -0.001850
      2.44128      4.38850      6.31445        -0.000955     -0.001239     -0.001850
     12.56136      1.34471      1.32630        -0.000920      0.000088      0.000934
     10.33513      6.89957      5.01903        -0.000920     -0.000088      0.000934
      5.50983      5.46682      1.31634        -0.000920      0.000088      0.000934
      3.28360      2.77743      5.00906        -0.000920     -0.000088      0.000934
      3.28880      1.14634      2.50803         0.000134     -0.002733     -0.000311
      1.06258      7.09794      6.20075         0.000134      0.002733     -0.000311
     10.34033      5.26847      2.51799         0.000134     -0.002733     -0.000311
      8.11410      2.97579      6.21072         0.000134      0.002733     -0.000311
      9.36264      2.29290      0.69642        -0.000512     -0.000317      0.000114
      7.13642      5.95136      4.38914        -0.000512      0.000317      0.000114
      2.31111      6.41504      0.68645        -0.000512     -0.000317      0.000114
      0.08487      1.82923      4.37918        -0.000512      0.000317      0.000114
      2.38741      1.76814      1.85081        -0.000069     -0.003808      0.000446
      0.16119      6.47612      5.54353        -0.000069      0.003808      0.000446
      9.43894      5.89027      1.86077        -0.000069     -0.003808      0.000446
      7.21272      2.35400      5.55350        -0.000069      0.003808      0.000446
     -2.91203      3.93525      5.62631         0.001928     -0.002548     -0.000341
     -0.68580      4.30901      1.93357         0.001928      0.002548     -0.000341
      4.13951      8.05740      5.63625         0.001928     -0.002548     -0.000341
      6.36574      0.18688      1.94355         0.001928      0.002548     -0.000341
     12.64016      0.20825      1.91046        -0.001731      0.001554     -0.000785
     10.41392      8.03601      5.60319        -0.001731     -0.001554     -0.000785
      5.58862      4.33040      1.90050        -0.001731      0.001554     -0.000785
      3.36241      3.91388      5.59322        -0.001731     -0.001554     -0.000785
      9.46523      1.94851      3.14105        -0.000222     -0.001274      0.000605
      7.23901      6.29576      6.83377        -0.000222      0.001274      0.000605
      2.41372      6.07064      3.13108        -0.000222     -0.001274      0.000605
      0.18749      2.17363      6.82381        -0.000222      0.001274      0.000605
      9.36762      1.21847      0.49101         0.000398     -0.002564      0.000746
      7.14140      7.02579      4.18373         0.000398      0.002564      0.000746
      2.31610      5.34061      0.48104         0.000398     -0.002564      0.000746
      0.08987      2.90366      4.17376         0.000398      0.002564      0.000746
      5.38324      2.84468      7.26654        -0.000779     -0.000787      0.000927
      7.60948      5.39958      3.57382        -0.000779      0.000787      0.000927
     -1.66827      6.96683      7.25657        -0.000779     -0.000787      0.000927
      0.55795      1.27745      3.56384        -0.000779      0.000787      0.000927
      8.33095      2.62883      0.82169        -0.000869     -0.000977      0.001490
      6.10473      5.61544      4.51441        -0.000869      0.000977      0.001490
      1.27944      6.75096      0.81172        -0.000869     -0.000977      0.001490
     -0.94680      1.49331      4.50444        -0.000869      0.000977      0.001490
[...]
     12.28969      6.06413      0.33335        -0.000075      0.001226     -0.001314
      3.01194      6.30227      4.01610        -0.000075     -0.001226     -0.001314
      5.23816      1.94200      0.32338        -0.000075      0.001226     -0.001314
      9.40387      0.86411      3.01410         0.001392     -0.002730     -0.000507
      7.17766      7.38016      6.70682         0.001392      0.002730     -0.000507
      2.35236      4.98624      3.00413         0.001392     -0.002730     -0.000507
      0.12612      3.25802      6.69685         0.001392      0.002730     -0.000507
      8.45808      2.36585      3.22600         0.000074     -0.001222      0.000005
      6.23186      5.87843      6.91872         0.000074      0.001222      0.000005
      1.40655      6.48797      3.21603         0.000074     -0.001222      0.000005
     -0.81968      1.75628      6.90875         0.000074      0.001222      0.000005
     10.11831      2.53887      1.94793        -0.000628      0.000196      0.000328
      7.89208      5.70539      5.64066        -0.000628     -0.000196      0.000328
      3.06678      6.66101      1.93796        -0.000628      0.000196      0.000328
      0.84055      1.58326      5.63068        -0.000628     -0.000196      0.000328
    total drift:                                0.007576     -0.177428     -0.002219

  FREE ENERGIE OF THE ION-ELECTRON SYSTEM (eV)
  free  energy   TOTEN  =      -572.77781960 eV

  energy  without entropy=     -572.77781960  energy(sigma->0) =     -572.77781960

 total charge

[...]

 magnetization (x)

# of ion       s       p       d       tot
    1       -0.011  -0.009  -2.760  -2.780
    2        0.011   0.009   2.760   2.780
    3       -0.011  -0.009  -2.760  -2.780
    4        0.011   0.009   2.760   2.780
    5       -0.003  -0.019   0.000  -0.022
    6        0.003   0.019   0.000   0.022
    7       -0.003  -0.019   0.000  -0.022
    8        0.003   0.019   0.000   0.022
    9        0.003   0.019   0.000   0.022
   10       -0.003  -0.019   0.000  -0.022
   11        0.003   0.019   0.000   0.022
   12       -0.003  -0.019   0.000  -0.022
   13       -0.003  -0.022   0.000  -0.025
   14        0.003   0.022   0.000   0.025
   15       -0.003  -0.022   0.000  -0.025
   16        0.003   0.022   0.000   0.025
   17        0.003   0.018   0.000   0.021
   18       -0.003  -0.018   0.000  -0.021
   19        0.003   0.018   0.000   0.021
   20       -0.003  -0.018   0.000  -0.021
   21       -0.003  -0.017   0.000  -0.020
   22        0.003   0.017   0.000   0.020
   23       -0.003  -0.017   0.000  -0.020
   24        0.003   0.017   0.000   0.020
   25        0.003   0.016   0.000   0.019
   26       -0.003  -0.016   0.000  -0.019
   27        0.003   0.016   0.000   0.019
   28       -0.003  -0.016   0.000  -0.019
   29       -0.000   0.000   0.000   0.000
   30        0.000  -0.000   0.000  -0.000
   31       -0.000   0.000   0.000   0.000
   32        0.000  -0.000   0.000  -0.000
   33        0.000  -0.000   0.000  -0.000
   34       -0.000   0.000   0.000   0.000
   35        0.000  -0.000   0.000  -0.000
   36       -0.000   0.000   0.000   0.000
   37        0.000   0.000   0.000   0.001
   38       -0.000  -0.000   0.000  -0.001
   39        0.000   0.000   0.000   0.001
   40       -0.000  -0.000   0.000  -0.001
   41        0.000  -0.000   0.000   0.000
   42       -0.000   0.000   0.000  -0.000
   43        0.000  -0.000   0.000   0.000
   44       -0.000   0.000   0.000  -0.000
   45        0.000   0.000   0.000   0.000
   46       -0.000  -0.000   0.000  -0.000
   47        0.000   0.000   0.000   0.000
   48       -0.000  -0.000   0.000  -0.000
   49       -0.000   0.000   0.000  -0.000
   50        0.000  -0.000   0.000   0.000
   51       -0.000   0.000   0.000  -0.000
   52        0.000  -0.000   0.000   0.000
   53       -0.000  -0.000   0.000  -0.000
   54        0.000   0.000   0.000   0.000
   55       -0.000  -0.000   0.000  -0.000
   56        0.000   0.000   0.000   0.000
   57       -0.000   0.000   0.000  -0.000
   58        0.000  -0.000   0.000   0.000
   59       -0.000   0.000   0.000  -0.000
   60        0.000  -0.000   0.000   0.000
[...]
   82       -0.000  -0.000   0.000  -0.000
   83        0.000   0.000   0.000   0.000
   84       -0.000  -0.000   0.000  -0.000
   85        0.000   0.000   0.000   0.000
   86       -0.000  -0.000   0.000  -0.000
   87        0.000   0.000   0.000   0.000
   88       -0.000  -0.000   0.000  -0.000
   89        0.000   0.000   0.000   0.000
   90       -0.000  -0.000   0.000  -0.000
   91        0.000   0.000   0.000   0.000
   92       -0.000  -0.000   0.000  -0.000
   93       -0.000  -0.000   0.000  -0.000
   94        0.000   0.000   0.000   0.000
   95       -0.000  -0.000   0.000  -0.000
   96        0.000   0.000   0.000   0.000
tot          0.000  -0.000  -0.000  -0.000