 vasp.5.4.1 24Jun15 (build Aug 03 2015 13:31:17) complex

 executed on      LinuxIFC_2015xe date 2022.03.19  14:34:53

 INCAR:
 POTCAR:    PAW_PBE Zn 06Sep2000
 POTCAR:   PAW_PBE O 08Apr2002
 POTCAR:   PAW_PBE C 08Apr2002
 POTCAR:   PAW_PBE H 15Jun2001
 POTCAR:   PAW_PBE N 08Apr2002

 POTCAR:    PAW_PBE Zn 06Sep2000
   VRHFIN =Zn: d10 p2

   TITEL  = PAW_PBE Zn 06Sep2000
   POMASS =   65.390; ZVAL   =   12.000    mass and valenz
   ENMAX  =  276.723; ENMIN  =  207.542 eV

 POTCAR:   PAW_PBE O 08Apr2002
   VRHFIN =O: s2p4

   TITEL  = PAW_PBE O 08Apr2002
   POMASS =   16.000; ZVAL   =    6.000    mass and valenz
   ENMAX  =  400.000; ENMIN  =  300.000 eV
   QCUT   =   -5.520; QGAM   =   11.041    optimization parameters

   Description
     l     E      TYP  RCUT    TYP  RCUT
     0   .000     23  1.200
     0  -.700     23  1.200
     1   .000     23  1.520
     1   .600     23  1.520
     2   .000      7  1.500

 POTCAR:   PAW_PBE C 08Apr2002
   VRHFIN =C: s2p2

[...]

 POTCAR:   PAW_PBE H 15Jun2001
   VRHFIN =H: ultrasoft test

   TITEL  = PAW_PBE H 15Jun2001
   POMASS =    1.000; ZVAL   =    1.000    mass and valenz
   ENMAX  =  250.000; ENMIN  =  200.000 eV
   QCUT   =   -5.749; QGAM   =   11.498    optimization parameters

[...]

 POTCAR:   PAW_PBE N 08Apr2002
   VRHFIN =N: s2p3

   TITEL  = PAW_PBE N 08Apr2002
   POMASS =   14.001; ZVAL   =    5.000    mass and valenz
   ENMAX  =  400.000; ENMIN  =  300.000 eV
   QCUT   =   -5.562; QGAM   =   11.124    optimization parameters

   Description
     l     E      TYP  RCUT    TYP  RCUT
     0   .000     23  1.200
     0   .000     23  1.200
     1   .000     23  1.500
     1   .700     23  1.500
     2   .000      7  1.500

  PAW_PBE Zn 06Sep2000                  :
 PAW_PBE O 08Apr2002                    :
 PAW_PBE C 08Apr2002                    :
 PAW_PBE H 15Jun2001                    :
 PAW_PBE N 08Apr2002                    :

 POSCAR: C3 H3 Co O6, H5 N2
  positions in direct lattice
  velocities in cartesian coordinates
 exchange correlation table for  LEXCH =        8
   RHO(1)=    0.500       N(1)  =     2000
   RHO(2)=  100.500       N(2)  =     4000

 ion  position               nearest neighbor table
   1  0.539  0.500  0.512-  10 2.12  21 2.13  13 2.13  27 2.13  19 2.13   5 2.14
   2  0.461  0.500  0.012-   9 2.12  22 2.13  14 2.13  28 2.13  20 2.13   6 2.14
   3  0.039  0.000  0.512-  12 2.12  23 2.13  15 2.13  25 2.13  17 2.13   7 2.14
   4  0.961  1.000  0.012-  11 2.12  24 2.13  16 2.13  26 2.13  18 2.13   8 2.14
   5  0.563  0.648  0.668-  29 1.28   1 2.14
   6  0.437  0.352  0.168-  30 1.28   2 2.14
   7  0.063  0.852  0.668-  31 1.28   3 2.14
   8  0.937  0.148  0.168-  32 1.28   4 2.14
   9  0.506  0.642  0.858-  29 1.27   2 2.12
  10  0.494  0.358  0.358-  30 1.27   1 2.12
  11  0.006  0.858  0.858-  31 1.27   4 2.12
  12  0.994  0.142  0.358-  32 1.27   3 2.12
  13  0.446  0.730  0.439-  33 1.27   1 2.13
  14  0.554  0.270  0.939-  34 1.27   2 2.13
  15  0.946  0.770  0.439-  35 1.27   3 2.13
  16  0.054  0.230  0.939-  36 1.27   4 2.13
  17  0.255  0.925  0.439-  33 1.28   3 2.13
  18  0.745  0.075  0.939-  34 1.28   4 2.13
  19  0.755  0.575  0.439-  35 1.28   1 2.13
  20  0.245  0.425  0.939-  36 1.28   2 2.13
  21  0.320  0.428  0.580-  37 1.26   1 2.13
  22  0.680  0.572  0.080-  38 1.26   2 2.13
  23  0.820  0.072  0.580-  39 1.26   3 2.13
  24  0.180  0.928  0.080-  40 1.26   4 2.13
  25  0.129  0.233  0.583-  37 1.28   3 2.13
  26  0.871  0.767  0.083-  38 1.28   4 2.13
  27  0.629  0.267  0.583-  39 1.28   1 2.13
  28  0.371  0.733  0.083-  40 1.28   2 2.13
  29  0.538  0.567  0.762-  41 1.10   9 1.27   5 1.28
  30  0.462  0.433  0.262-  42 1.10  10 1.27   6 1.28
  31  0.038  0.933  0.762-  43 1.10  11 1.27   7 1.28
  32  0.962  0.067  0.262-  44 1.10  12 1.27   8 1.28
  33  0.324  0.794  0.482-  45 1.10  13 1.27  17 1.28
  34  0.676  0.206  0.982-  46 1.10  14 1.27  18 1.28
  35  0.824  0.706  0.482-  47 1.10  15 1.27  19 1.28
  36  0.176  0.294  0.982-  48 1.10  16 1.27  20 1.28
  37  0.266  0.281  0.555-  49 1.10  21 1.26  25 1.28
  38  0.734  0.719  0.055-  50 1.10  22 1.26  26 1.28
  39  0.766  0.219  0.555-  51 1.10  23 1.26  27 1.28
  40  0.234  0.781  0.055-  52 1.10  24 1.26  28 1.28
  41  0.543  0.425  0.760-  29 1.10
  42  0.457  0.575  0.260-  30 1.10
  43  0.043  0.075  0.760-  31 1.10
  44  0.957  0.925  0.260-  32 1.10
  45  0.273  0.734  0.560-  33 1.10
  46  0.727  0.266  0.060-  34 1.10
  47  0.773  0.766  0.560-  35 1.10
  48  0.227  0.234  0.060-  36 1.10
  49  0.339  0.189  0.507-  37 1.10
  50  0.661  0.811  0.007-  38 1.10
  51  0.839  0.311  0.507-  39 1.10
  52  0.161  0.689  0.007-  40 1.10
  53  0.071  0.410  0.677-  77 1.05
  54  0.929  0.590  0.177-  78 1.05
  55  0.571  0.090  0.677-  79 1.05
  56  0.429  0.910  0.177-  80 1.05
  57  0.070  0.629  0.702-  77 1.05
  58  0.930  0.371  0.202-  78 1.05
  59  0.570  0.871  0.702-  79 1.05
  60  0.430  0.129  0.202-  80 1.05
[...]
  66  0.085  0.602  0.352-  74 1.03
  67  0.415  0.102  0.852-  75 1.03
  68  0.585  0.898  0.352-  76 1.03
  69  0.897  0.610  0.839-  73 1.03
  70  0.103  0.390  0.339-  74 1.03
  71  0.397  0.890  0.839-  75 1.03
  72  0.603  0.110  0.339-  76 1.03
  73  0.906  0.497  0.793-  69 1.03  65 1.03  77 1.45
  74  0.094  0.503  0.293-  70 1.03  66 1.03  78 1.45
  75  0.406  0.003  0.793-  71 1.03  67 1.03  79 1.45
  76  0.594  0.997  0.293-  72 1.03  68 1.03  80 1.45
  77  0.059  0.506  0.741-  53 1.05  61 1.05  57 1.05  73 1.45
  78  0.941  0.494  0.241-  54 1.05  62 1.05  58 1.05  74 1.45
  79  0.559  0.994  0.741-  55 1.05  63 1.05  59 1.05  75 1.45
  80  0.441  0.006  0.241-  56 1.05  64 1.05  60 1.05  76 1.45

  LATTYP: Found a simple orthorhombic cell.
 ALAT       =     7.7573220383
 B/A-ratio  =     1.1153879045
 C/A-ratio  =     1.4801698182

  Lattice vectors:

 A1 = (   0.0000000000,  -7.7573220383,   0.0000000000)
 A2 = (  -8.6524231728,   0.0000000000,   0.0000000000)
 A3 = (   0.0000000000,   0.0000000000, -11.4821539516)

Analysis of symmetry for initial positions (statically):
 Subroutine PRICEL returns:
 Original cell was already a primitive cell.

 Routine SETGRP: Setting up the symmetry group for a
 simple orthorhombic supercell.

 Subroutine GETGRP returns: Found  4 space group operations
 (whereof  1 operations were pure point group operations)
 out of a pool of  8 trial point group operations.

The static configuration has the point symmetry C_1 .
 The point group associated with its full space group is C_2v.

Analysis of symmetry for dynamics (positions and initial velocities):
 Subroutine PRICEL returns:
 Original cell was already a primitive cell.

 Routine SETGRP: Setting up the symmetry group for a
 simple orthorhombic supercell.

 Subroutine GETGRP returns: Found  4 space group operations
 (whereof  1 operations were pure point group operations)
 out of a pool of  8 trial point group operations.

The dynamic configuration has the point symmetry C_1 .
 The point group associated with its full space group is C_2v.

Analysis of magnetic symmetry:
 Subroutine PRICEL returns:
 Original cell was already a primitive cell.

 Subroutine MAGSYM returns: Found  4 space group operations
 (whereof  1 operations were pure point group operations)
 out of a pool of  4 trial space group operations
 (whereof  1 operations were pure point group operations)
 and found also     1 'primitive' translations

The magnetic configuration has the point symmetry C_1 .
 The point group associated with its full space group is C_2v.

 KPOINTS: Automatic mesh

Automatic generation of k-mesh.
Space group operators:
 irot       det(A)        alpha          n_x          n_y          n_z        tau_x        tau_y        tau_z
    1     1.000000     0.000000     1.000000     0.000000     0.000000     0.000000     0.000000     0.000000
    2     1.000000   180.000000     0.000000     0.000000     1.000000    -0.000000     0.000000    -0.500000
    3    -1.000000   180.000000     1.000000     0.000000     0.000000    -0.500000    -0.500000    -0.500000
    4    -1.000000   180.000000     0.000000     1.000000     0.000000    -0.500000    -0.500000     0.000000

 Subroutine IBZKPT returns following result:

 Found      4 irreducible k-points:

 Following reciprocal coordinates:
            Coordinates               Weight
  0.125000  0.125000  0.250000      8.000000
  0.375000  0.125000  0.250000      8.000000
  0.125000  0.375000  0.250000      8.000000
  0.375000  0.375000  0.250000      8.000000

 Following cartesian coordinates:
            Coordinates               Weight
  0.014447  0.016114  0.021773      8.000000
  0.043340  0.016114  0.021773      8.000000
  0.014447  0.048341  0.021773      8.000000
  0.043340  0.048341  0.021773      8.000000

 Subroutine IBZKPT_HF returns following result:

 Found     32 k-points in 1st BZ
 the following     32 k-points will be used (e.g. in the exchange kernel)
 Following reciprocal coordinates:   # in IRBZ
  0.125000  0.125000  0.250000    0.03125000   1 t-inv F
  0.375000  0.125000  0.250000    0.03125000   2 t-inv F
  0.125000  0.375000  0.250000    0.03125000   3 t-inv F
  0.375000  0.375000  0.250000    0.03125000   4 t-inv F
 -0.125000 -0.125000  0.250000    0.03125000   1 t-inv F
 -0.125000  0.125000  0.250000    0.03125000   1 t-inv F
  0.125000 -0.125000  0.250000    0.03125000   1 t-inv F
 -0.375000 -0.125000  0.250000    0.03125000   2 t-inv F
 -0.375000  0.125000  0.250000    0.03125000   2 t-inv F
  0.375000 -0.125000  0.250000    0.03125000   2 t-inv F
 -0.125000 -0.375000  0.250000    0.03125000   3 t-inv F
 -0.125000  0.375000  0.250000    0.03125000   3 t-inv F
  0.125000 -0.375000  0.250000    0.03125000   3 t-inv F
 -0.375000 -0.375000  0.250000    0.03125000   4 t-inv F
 -0.375000  0.375000  0.250000    0.03125000   4 t-inv F
  0.375000 -0.375000  0.250000    0.03125000   4 t-inv F
 -0.125000 -0.125000 -0.250000    0.03125000   1 t-inv T
  0.125000  0.125000 -0.250000    0.03125000   1 t-inv T
  0.125000 -0.125000 -0.250000    0.03125000   1 t-inv T
 -0.125000  0.125000 -0.250000    0.03125000   1 t-inv T
 -0.375000 -0.125000 -0.250000    0.03125000   2 t-inv T
  0.375000  0.125000 -0.250000    0.03125000   2 t-inv T
  0.375000 -0.125000 -0.250000    0.03125000   2 t-inv T
 -0.375000  0.125000 -0.250000    0.03125000   2 t-inv T
 -0.125000 -0.375000 -0.250000    0.03125000   3 t-inv T
  0.125000  0.375000 -0.250000    0.03125000   3 t-inv T
  0.125000 -0.375000 -0.250000    0.03125000   3 t-inv T
 -0.125000  0.375000 -0.250000    0.03125000   3 t-inv T
 -0.375000 -0.375000 -0.250000    0.03125000   4 t-inv T
  0.375000  0.375000 -0.250000    0.03125000   4 t-inv T
  0.375000 -0.375000 -0.250000    0.03125000   4 t-inv T
 -0.375000  0.375000 -0.250000    0.03125000   4 t-inv T

 I would recommend the setting:
   dimension x,y,z NGX =    75 NGY =   67 NGZ =   99
 SYSTEM =  Zn-MOF
 POSCAR =  C3 H3 Co O6, H5 N2

 Startparameter for this run:
   NWRITE =      2    write-flag & timer
   PREC   = high      normal or accurate (medium, high low for compatibility)
   ISTART =      0    job   : 0-new  1-cont  2-samecut
[...]
   0.992E+02 0.103E+03 -.106E+03   -.884E+02 -.144E+03 0.119E+03   -.108E+02 0.407E+02 -.132E+02   0.171E-03 -.248E-03 -.176E-03
   -.992E+02 -.103E+03 -.106E+03   0.884E+02 0.144E+03 0.119E+03   0.108E+02 -.407E+02 -.132E+02   -.171E-03 0.248E-03 -.185E-03
   0.858E+02 -.877E+02 -.109E+03   -.125E+03 0.791E+02 0.122E+03   0.387E+02 0.864E+01 -.123E+02   -.165E-03 0.204E-04 -.282E-03
   -.858E+02 0.877E+02 -.109E+03   0.125E+03 -.791E+02 0.122E+03   -.387E+02 -.864E+01 -.123E+02   0.165E-03 -.203E-04 -.291E-03
   0.858E+02 0.877E+02 -.109E+03   -.125E+03 -.791E+02 0.122E+03   0.387E+02 -.864E+01 -.123E+02   -.165E-03 -.207E-04 -.282E-03
   -.858E+02 -.877E+02 -.109E+03   0.125E+03 0.791E+02 0.122E+03   -.387E+02 0.864E+01 -.123E+02   0.164E-03 0.207E-04 -.291E-03
   -.226E+02 0.107E+03 -.330E+01   0.229E+02 -.115E+03 0.316E+01   -.264E+00 0.767E+01 0.136E+00   -.183E-03 -.994E-04 0.165E-03
   0.226E+02 -.107E+03 -.330E+01   -.229E+02 0.115E+03 0.316E+01   0.264E+00 -.767E+01 0.136E+00   0.183E-03 0.992E-04 0.160E-03
   -.226E+02 -.107E+03 -.330E+01   0.229E+02 0.115E+03 0.316E+01   -.264E+00 -.767E+01 0.136E+00   -.183E-03 0.995E-04 0.165E-03
   0.226E+02 0.107E+03 -.330E+01   -.229E+02 -.115E+03 0.316E+01   0.264E+00 0.767E+01 0.136E+00   0.183E-03 -.992E-04 0.160E-03
   0.408E+02 0.356E+02 -.907E+02   -.438E+02 -.389E+02 0.969E+02   0.294E+01 0.330E+01 -.621E+01   0.983E-04 -.216E-03 0.113E-04
   -.408E+02 -.356E+02 -.907E+02   0.438E+02 0.389E+02 0.969E+02   -.294E+01 -.330E+01 -.621E+01   -.983E-04 0.216E-03 0.803E-05
   0.408E+02 -.356E+02 -.907E+02   -.438E+02 0.389E+02 0.969E+02   0.294E+01 -.330E+01 -.621E+01   0.985E-04 0.216E-03 0.114E-04
   -.408E+02 0.356E+02 -.907E+02   0.438E+02 -.389E+02 0.969E+02   -.294E+01 0.330E+01 -.621E+01   -.985E-04 -.216E-03 0.819E-05
   -.597E+02 0.786E+02 0.381E+02   0.641E+02 -.833E+02 -.419E+02   -.444E+01 0.476E+01 0.377E+01   0.294E-03 0.216E-03 -.251E-03
   0.597E+02 -.786E+02 0.381E+02   -.641E+02 0.833E+02 -.419E+02   0.444E+01 -.476E+01 0.377E+01   -.294E-03 -.216E-03 -.256E-03
   -.597E+02 -.786E+02 0.381E+02   0.641E+02 0.833E+02 -.419E+02   -.444E+01 -.476E+01 0.377E+01   0.294E-03 -.216E-03 -.251E-03
   0.597E+02 0.786E+02 0.381E+02   -.641E+02 -.833E+02 -.419E+02   0.444E+01 0.476E+01 0.377E+01   -.294E-03 0.216E-03 -.256E-03
   -.586E+01 0.551E+02 -.555E+00   0.616E+01 -.610E+02 0.457E+00   -.301E+00 0.589E+01 0.994E-01   -.492E-04 0.534E-04 0.318E-04
   0.586E+01 -.551E+02 -.555E+00   -.616E+01 0.610E+02 0.457E+00   0.301E+00 -.589E+01 0.994E-01   0.492E-04 -.534E-04 0.306E-04
   -.586E+01 -.551E+02 -.555E+00   0.616E+01 0.610E+02 0.457E+00   -.301E+00 -.589E+01 0.994E-01   -.492E-04 -.534E-04 0.318E-04
   0.586E+01 0.551E+02 -.555E+00   -.616E+01 -.610E+02 0.457E+00   0.301E+00 0.589E+01 0.994E-01   0.493E-04 0.534E-04 0.306E-04
   0.203E+02 0.206E+02 -.464E+02   -.226E+02 -.231E+02 0.512E+02   0.231E+01 0.250E+01 -.481E+01   0.193E-04 -.274E-04 -.843E-04
   -.203E+02 -.206E+02 -.464E+02   0.226E+02 0.231E+02 0.512E+02   -.231E+01 -.250E+01 -.481E+01   -.193E-04 0.273E-04 -.856E-04
   0.203E+02 -.206E+02 -.464E+02   -.226E+02 0.231E+02 0.512E+02   0.231E+01 -.250E+01 -.481E+01   0.193E-04 0.274E-04 -.843E-04
   -.203E+02 0.206E+02 -.464E+02   0.226E+02 -.231E+02 0.512E+02   -.231E+01 0.250E+01 -.481E+01   -.194E-04 -.274E-04 -.856E-04
   -.330E+02 0.369E+02 0.224E+02   0.363E+02 -.407E+02 -.253E+02   -.336E+01 0.379E+01 0.294E+01   -.159E-04 0.610E-04 -.161E-04
   0.330E+02 -.369E+02 0.224E+02   -.363E+02 0.407E+02 -.253E+02   0.336E+01 -.379E+01 0.294E+01   0.160E-04 -.610E-04 -.171E-04
   -.330E+02 -.369E+02 0.224E+02   0.363E+02 0.407E+02 -.253E+02   -.336E+01 -.379E+01 0.294E+01   -.159E-04 -.611E-04 -.161E-04
   0.330E+02 0.369E+02 0.224E+02   -.363E+02 -.407E+02 -.253E+02   0.336E+01 0.379E+01 0.294E+01   0.159E-04 0.611E-04 -.171E-04
   0.332E+01 0.266E+02 0.308E+02   -.257E+01 -.316E+02 -.357E+02   -.740E+00 0.495E+01 0.486E+01   0.458E-04 0.349E-04 -.933E-06
   -.332E+01 -.266E+02 0.308E+02   0.257E+01 0.316E+02 -.357E+02   0.740E+00 -.495E+01 0.486E+01   -.458E-04 -.349E-04 -.246E-05
   0.332E+01 -.266E+02 0.308E+02   -.257E+01 0.316E+02 -.357E+02   -.740E+00 -.495E+01 0.486E+01   0.458E-04 -.349E-04 -.932E-06
   -.332E+01 0.266E+02 0.308E+02   0.257E+01 -.316E+02 -.357E+02   0.740E+00 0.495E+01 0.486E+01   -.459E-04 0.349E-04 -.248E-05
   -.114E+02 -.293E+02 0.255E+02   0.120E+02 0.355E+02 -.284E+02   -.629E+00 -.615E+01 0.284E+01   0.338E-04 -.220E-04 -.506E-05
   0.114E+02 0.293E+02 0.255E+02   -.120E+02 -.355E+02 -.284E+02   0.629E+00 0.615E+01 0.284E+01   -.337E-04 0.220E-04 -.652E-05
   -.114E+02 0.293E+02 0.255E+02   0.120E+02 -.355E+02 -.284E+02   -.629E+00 0.615E+01 0.284E+01   0.338E-04 0.221E-04 -.507E-05
   0.114E+02 -.293E+02 0.255E+02   -.120E+02 0.355E+02 -.284E+02   0.629E+00 -.615E+01 0.284E+01   -.339E-04 -.220E-04 -.653E-05
[...]
   0.134E+02 -.352E+02 -.321E+02   -.130E+02 0.407E+02 0.369E+02   -.368E+00 -.551E+01 -.476E+01   0.462E-04 0.703E-04 0.116E-03
   -.134E+02 0.352E+02 -.321E+02   0.130E+02 -.407E+02 0.369E+02   0.368E+00 0.551E+01 -.476E+01   -.462E-04 -.703E-04 0.115E-03
   0.187E+02 -.391E+02 -.298E+02   -.194E+02 0.454E+02 0.335E+02   0.733E+00 -.627E+01 -.367E+01   0.276E-04 0.739E-04 0.839E-04
   -.187E+02 0.391E+02 -.298E+02   0.194E+02 -.454E+02 0.335E+02   -.733E+00 0.627E+01 -.367E+01   -.275E-04 -.740E-04 0.834E-04
   0.187E+02 0.391E+02 -.298E+02   -.194E+02 -.454E+02 0.335E+02   0.733E+00 0.627E+01 -.367E+01   0.275E-04 -.739E-04 0.839E-04
   -.187E+02 -.391E+02 -.298E+02   0.194E+02 0.454E+02 0.335E+02   -.733E+00 -.627E+01 -.367E+01   -.275E-04 0.740E-04 0.834E-04
   0.127E+03 0.179E+02 0.402E+01   -.155E+03 -.222E+02 -.207E+02   0.277E+02 0.426E+01 0.167E+02   0.309E-03 0.340E-04 0.264E-03
   -.127E+03 -.179E+02 0.402E+01   0.155E+03 0.222E+02 -.207E+02   -.277E+02 -.426E+01 0.167E+02   -.309E-03 -.343E-04 0.259E-03
   0.127E+03 -.179E+02 0.402E+01   -.155E+03 0.222E+02 -.207E+02   0.277E+02 -.426E+01 0.167E+02   0.309E-03 -.340E-04 0.264E-03
   -.127E+03 0.179E+02 0.402E+01   0.155E+03 -.222E+02 -.207E+02   -.277E+02 0.426E+01 0.167E+02   -.309E-03 0.343E-04 0.259E-03
   -.502E+02 0.673E+00 0.440E+02   0.547E+02 -.384E+00 -.465E+02   -.443E+01 -.289E+00 0.253E+01   0.366E-03 0.462E-04 0.807E-04
   0.502E+02 -.673E+00 0.440E+02   -.547E+02 0.384E+00 -.465E+02   0.443E+01 0.289E+00 0.253E+01   -.366E-03 -.465E-04 0.740E-04
   -.502E+02 -.673E+00 0.440E+02   0.547E+02 0.384E+00 -.465E+02   -.443E+01 0.289E+00 0.253E+01   0.366E-03 -.461E-04 0.806E-04
   0.502E+02 0.673E+00 0.440E+02   -.547E+02 -.384E+00 -.465E+02   0.443E+01 -.289E+00 0.253E+01   -.366E-03 0.465E-04 0.739E-04
   -.205E-02 -.555E-03 -.923E+02   -.924E-13 -.194E-12 -.526E-12   0.000E+00 0.622E-14 0.924E+02   0.396E-06 0.604E-08 -.492E-03

 POSITION                                       TOTAL-FORCE (eV/Angst)
      4.66052      3.87547      5.87574         0.004350     -0.000715     -0.000179
      3.99190      3.88185      0.13467        -0.004350      0.000715     -0.000179
      0.33431      0.00319      5.87574         0.004350      0.000715     -0.000179
      8.31812      7.75413      0.13467        -0.004350     -0.000715     -0.000179
      4.87543      5.02962      7.66775        -0.000785     -0.002369      0.002380
      3.77700      2.72770      1.92668         0.000785      0.002369      0.002380
      0.54921      6.60636      7.66775        -0.000785      0.002369      0.002380
      8.10321      1.15096      1.92668         0.000785     -0.002369      0.002380
      4.37765      4.97660      9.84812         0.000365     -0.001623     -0.002020
      4.27477      2.78072      4.10704        -0.000365      0.001623     -0.002020
      0.05144      6.65938      9.84812         0.000365      0.001623     -0.002020
      8.60099      1.09794      4.10704        -0.000365     -0.001623     -0.002020
      3.85894      5.66415      5.04497        -0.000204     -0.000159      0.000325
      4.79348      2.09318     10.78605         0.000204      0.000159      0.000325
      8.18515      5.97184      5.04497        -0.000204      0.000159      0.000325
      0.46727      1.78548     10.78605         0.000204     -0.000159      0.000325
      2.20546      7.17281      5.03856        -0.000554     -0.002690      0.001815
      6.44696      0.58451     10.77963         0.000554      0.002690      0.001815
      6.53167      4.46317      5.03856        -0.000554      0.002690      0.001815
      2.12075      3.29415     10.77963         0.000554     -0.002690      0.001815
      2.76541      3.31987      6.66109         0.000945     -0.003002     -0.000692
      5.88701      4.43745      0.92001        -0.000945      0.003002     -0.000692
      7.09162      0.55879      6.66109         0.000945      0.003002     -0.000692
      1.56080      7.19853      0.92001        -0.000945     -0.003002     -0.000692
      1.11644      1.81104      6.69028        -0.001333      0.000117      0.000340
      7.53598      5.94628      0.94920         0.001333     -0.000117      0.000340
      5.44266      2.06762      6.69028        -0.001333     -0.000117      0.000340
      3.20977      5.68970      0.94920         0.001333      0.000117      0.000340
      4.65255      4.39845      8.75376        -0.000138      0.003448     -0.000259
      3.99987      3.35887      3.01268         0.000138     -0.003448     -0.000259
      0.32634      7.23753      8.75376        -0.000138     -0.003448     -0.000259
      8.32608      0.51979      3.01268         0.000138      0.003448     -0.000259
      2.79978      6.15853      5.53416        -0.000665      0.001270     -0.000106
      5.85265      1.59879     11.27523         0.000665     -0.001270     -0.000106
      7.12599      5.47745      5.53416        -0.000665     -0.001270     -0.000106
      1.52644      2.27987     11.27523         0.000665      0.001270     -0.000106
      2.29939      2.17851      6.37769         0.000866      0.001249     -0.000187
      6.35303      5.57881      0.63661        -0.000866     -0.001249     -0.000187
      6.62561      1.70015      6.37769         0.000866     -0.001249     -0.000187
      2.02682      6.05717      0.63661        -0.000866      0.001249     -0.000187
      4.70181      3.29756      8.73133         0.000203      0.000648      0.000079
      3.95061      4.45976      2.99025        -0.000203     -0.000648      0.000079
      0.37560      0.58110      8.73133         0.000203     -0.000648      0.000079
      8.27682      7.17623      2.99025        -0.000203      0.000648      0.000079
      2.36448      5.69203      6.43354         0.000716      0.000994     -0.001924
      6.28794      2.06530      0.69247        -0.000716     -0.000994     -0.001924
      6.69069      5.94396      6.43354         0.000716     -0.000994     -0.001924
      1.96173      1.81336      0.69247        -0.000716      0.000994     -0.001924
      2.93281      1.46283      5.82612        -0.000889      0.001567      0.000863
      5.71962      6.29449      0.08504         0.000889     -0.001567      0.000863
      7.25902      2.41583      5.82612        -0.000889     -0.001567      0.000863
      1.39341      5.34149      0.08504         0.000889      0.001567      0.000863
      0.61082      3.18148      7.77614         0.000148     -0.000593     -0.000877
      8.04160      4.57584      2.03507        -0.000148      0.000593     -0.000877
      4.93703      0.69718      7.77614         0.000148      0.000593     -0.000877
      3.71539      7.06014      2.03507        -0.000148     -0.000593     -0.000877
      0.60255      4.87565      8.06606         0.000206      0.001261     -0.000684
      8.04987      2.88167      2.32498        -0.000206     -0.001261     -0.000684
      4.92877      6.76033      8.06606         0.000206     -0.001261     -0.000684
      3.72366      0.99699      2.32498        -0.000206      0.001261     -0.000684
[...]
      0.73863      4.66905      4.04712        -0.000144      0.001215      0.001332
      3.58758      0.79039      9.78820         0.000144      0.001215      0.001332
      5.06485      6.96693      4.04712        -0.000144     -0.001215      0.001332
      7.76196      4.72851      9.63654        -0.000484      0.001546      0.001199
      0.89046      3.02881      3.89546         0.000484     -0.001546      0.001199
      3.43575      6.90747      9.63654        -0.000484     -0.001546      0.001199
      5.21667      0.84985      3.89546         0.000484      0.001546      0.001199
      7.83890      3.85262      9.10246         0.005984      0.000252     -0.005423
      0.81352      3.90471      3.36138        -0.005984     -0.000252     -0.005423
      3.51269      0.02605      9.10246         0.005984     -0.000252     -0.005423
      5.13973      7.73128      3.36138        -0.005984      0.000252     -0.005423
      0.50617      3.92473      8.50520        -0.006278     -0.000769      0.004449
      8.14625      3.83259      2.76412         0.006278      0.000769      0.004449
      4.83239      7.71125      8.50520        -0.006278      0.000769      0.004449
      3.82004      0.04607      2.76412         0.006278     -0.000769      0.004449
    total drift:                               -0.002045     -0.000555      0.014606

  FREE ENERGIE OF THE ION-ELECTRON SYSTEM (eV)
  free  energy   TOTEN  =      -473.43627701 eV

  energy  without entropy=     -473.43627701  energy(sigma->0) =     -473.43627701

 total charge

[...]

 magnetization (x)

# of ion     s       p       d       tot
  1        0.000   0.000   0.000   0.000
  2        0.000   0.000   0.000   0.000
  3        0.000   0.000   0.000   0.000
  4        0.000   0.000   0.000   0.000
  5       -0.000  -0.000   0.000  -0.000
  6       -0.000  -0.000   0.000  -0.000
  7       -0.000  -0.000   0.000  -0.000
  8       -0.000  -0.000   0.000  -0.000
  9       -0.000  -0.000   0.000  -0.000
 10       -0.000  -0.000   0.000  -0.000
 11       -0.000  -0.000   0.000  -0.000
 12       -0.000  -0.000   0.000  -0.000
 13       -0.000  -0.000   0.000  -0.000
 14       -0.000  -0.000   0.000  -0.000
 15       -0.000  -0.000   0.000  -0.000
 16       -0.000  -0.000   0.000  -0.000
 17       -0.000  -0.000   0.000  -0.000
 18       -0.000  -0.000   0.000  -0.000
 19       -0.000  -0.000   0.000  -0.000
 20       -0.000  -0.000   0.000  -0.000
 21       -0.000  -0.000   0.000  -0.000
 22       -0.000  -0.000   0.000  -0.000
 23       -0.000  -0.000   0.000  -0.000
 24       -0.000  -0.000   0.000  -0.000
 25       -0.000  -0.000   0.000  -0.000
 26       -0.000  -0.000   0.000  -0.000
 27       -0.000  -0.000   0.000  -0.000
 28       -0.000  -0.000   0.000  -0.000
 29       -0.000  -0.000   0.000  -0.000
 30       -0.000  -0.000   0.000  -0.000
 31       -0.000  -0.000   0.000  -0.000
 32       -0.000  -0.000   0.000  -0.000
 33       -0.000  -0.000   0.000  -0.000
 34       -0.000  -0.000   0.000  -0.000
 35       -0.000  -0.000   0.000  -0.000
 36       -0.000  -0.000   0.000  -0.000
 37       -0.000  -0.000   0.000  -0.000
 38       -0.000  -0.000   0.000  -0.000
 39       -0.000  -0.000   0.000  -0.000
 40       -0.000  -0.000   0.000  -0.000
 41        0.000  -0.000   0.000  -0.000
 42        0.000  -0.000   0.000  -0.000
 43        0.000  -0.000   0.000  -0.000
 44        0.000  -0.000   0.000  -0.000
 45        0.000  -0.000   0.000   0.000
 46        0.000  -0.000   0.000   0.000
 47        0.000  -0.000   0.000   0.000
 48        0.000  -0.000   0.000   0.000
 49        0.000  -0.000   0.000  -0.000
 50        0.000  -0.000   0.000  -0.000
 51        0.000  -0.000   0.000  -0.000
 52        0.000  -0.000   0.000  -0.000
 53       -0.000  -0.000   0.000  -0.000
 54       -0.000  -0.000   0.000  -0.000
 55       -0.000  -0.000   0.000  -0.000
 56       -0.000  -0.000   0.000  -0.000
 57       -0.000  -0.000   0.000  -0.000
 58       -0.000  -0.000   0.000  -0.000
 59       -0.000  -0.000   0.000  -0.000
 60       -0.000  -0.000   0.000  -0.000
[...]
 66        0.000  -0.000   0.000   0.000
 67        0.000  -0.000   0.000   0.000
 68        0.000  -0.000   0.000   0.000
 69        0.000  -0.000   0.000   0.000
 70        0.000  -0.000   0.000   0.000
 71        0.000  -0.000   0.000   0.000
 72        0.000  -0.000   0.000   0.000
 73       -0.000  -0.000   0.000  -0.000
 74       -0.000  -0.000   0.000  -0.000
 75       -0.000  -0.000   0.000  -0.000
 76       -0.000  -0.000   0.000  -0.000
 77       -0.000   0.000   0.000   0.000
 78       -0.000   0.000   0.000   0.000
 79       -0.000   0.000   0.000   0.000
 80       -0.000   0.000   0.000   0.000
tot       -0.000  -0.000   0.000  -0.000