 vasp.6.2.0 18Jan21 (build Jun 21 2021 16:53:19) complex

 executed on    LinuxIFC_2020xeU1 date 2021.09.18  05:40:17

 INCAR:
   IVDW = 11           (DFT-D3 method of method with no damping)
   ISPIN = 1 (Spin un-polarised DFT)
   ISTART = 1             (Read existing wavefunction
   ICHARG = 11         (Non-self-consistent: GGA/LDA band structures)
   LORBIT = 11
   LASPH = T
   GGA_COMPAT = .FALSE.
   LREAL = .FALSE.       (Projection operators: automatic)
   ENCUT = 708
   ENAUG = 708
   PREC = Accurate     (Precision level)
   LMAXMIX = 4
   LWAVE = .TRUE.        (Write WAVECAR or not)
   LCHARG = .TRUE.        (Write CHGCAR or not)
   ADDGRID = .TRUE.        (Increase grid
   LPLANE = .TRUE.      (Real space distribution
   NWRITE = 2           (Medium-level output)
   KPAR = 2           (Divides k-grid into separate groups)
   NSW = 0          (number of ionic steps)
   ISMEAR = 0            (gaussian smearing method )
   SIGMA = 0.05         (please check the width of the smearing)
   IBRION = -1            (Algorithm: 0-MD
   EDIFF = 1.0d-10
   KSPACING = 0.2
   LCALCPOL = T

 POTCAR:    PAW_PBE Zn 06Sep2000
 POTCAR:    PAW_PBE O 08Apr2002
 POTCAR:    PAW_PBE C 08Apr2002
 POTCAR:    PAW_PBE H 15Jun2001
 POTCAR:    PAW_PBE N 08Apr2002
|           W    W    AA    RRRRR   N    N  II  N    N   GGGG   !!!           |
|           W    W   A  A   R    R  NN   N  II  NN   N  G    G  !!!           |
|           W    W  A    A  R    R  N N  N  II  N N  N  G       !!!           |
|           W WW W  AAAAAA  RRRRR   N  N N  II  N  N N  G  GGG   !            |
|           WW  WW  A    A  R   R   N   NN  II  N   NN  G    G                |
|           W    W  A    A  R    R  N    N  II  N    N   GGGG   !!!           |
|     For optimal performance we recommend to set                             |
|       NCORE = 2 up to number-of-cores-per-socket                            |
|     This setting can greatly improve the performance of VASP for DFT.       |
|     The default, NCORE=1 might be grossly inefficient on modern             |
|     multi-core architectures or massively parallel machines. Do your        |
|     Unfortunately you need to use the default for GW and RPA                |
|     calculations (for HF NCORE is supported but not extensively tested      |
|     yet).                                                                   |

   TITEL  = PAW_PBE Zn 06Sep2000
   POMASS =   65.390; ZVAL   =   12.000    mass and valenz
   ENMAX  =  276.723; ENMIN  =  207.542 eV

   TITEL  = PAW_PBE O 08Apr2002
   POMASS =   16.000; ZVAL   =    6.000    mass and valenz
   ENMAX  =  400.000; ENMIN  =  300.000 eV

[...]

   TITEL  = PAW_PBE H 15Jun2001
   POMASS =    1.000; ZVAL   =    1.000    mass and valenz
   ENMAX  =  250.000; ENMIN  =  200.000 eV

   TITEL  = PAW_PBE N 08Apr2002
   POMASS =   14.001; ZVAL   =    5.000    mass and valenz
   ENMAX  =  400.000; ENMIN  =  300.000 eV

  PAW_PBE Zn 06Sep2000                  :
  PAW_PBE O 08Apr2002                   :
  PAW_PBE C 08Apr2002                   :
  PAW_PBE H 15Jun2001                   :
  PAW_PBE N 08Apr2002                   :

 POSCAR: crystal
  positions in direct lattice
  velocities in cartesian coordinates
 exchange correlation table for  LEXCH =        8
   RHO(1)=    0.500       N(1)  =     2000
   RHO(2)=  100.500       N(2)  =     4000

 ion  position               nearest neighbor table
   1  0.232  0.250  0.250-  17 2.10  18 2.10   9 2.12  10 2.12  23 2.15  24 2.15
   2  0.268  0.750  0.250-  19 2.10  20 2.10  11 2.12  12 2.12  21 2.15  22 2.15
   3  0.768  0.750  0.750-  13 2.10  14 2.10   5 2.12   6 2.12  27 2.15  28 2.15
   4  0.732  0.250  0.750-  15 2.10  16 2.10   7 2.12   8 2.12  25 2.15  26 2.15
   5  0.769  0.905  0.874-  31 1.27   3 2.12
   6  0.769  0.595  0.626-  32 1.27   3 2.12
   7  0.731  0.405  0.626-  32 1.27   4 2.12
   8  0.731  0.095  0.874-  31 1.27   4 2.12
   9  0.231  0.095  0.126-  29 1.27   1 2.12
  10  0.231  0.405  0.374-  30 1.27   1 2.12
  11  0.269  0.595  0.374-  30 1.27   2 2.12
  12  0.269  0.905  0.126-  29 1.27   2 2.12
  13  0.915  0.675  0.914-  33 1.27   3 2.10
  14  0.915  0.825  0.586-  34 1.27   3 2.10
  15  0.585  0.175  0.586-  35 1.27   4 2.10
  16  0.585  0.325  0.914-  36 1.27   4 2.10
  17  0.085  0.325  0.086-  37 1.27   1 2.10
  18  0.085  0.175  0.414-  38 1.27   1 2.10
  19  0.415  0.825  0.414-  39 1.27   2 2.10
  20  0.415  0.675  0.086-  40 1.27   2 2.10
  21  0.071  0.689  0.116-  33 1.27   2 2.15
  22  0.071  0.811  0.384-  34 1.27   2 2.15
  23  0.429  0.189  0.384-  35 1.27   1 2.15
  24  0.429  0.311  0.116-  36 1.27   1 2.15
  25  0.929  0.311  0.884-  37 1.27   4 2.15
  26  0.929  0.189  0.616-  38 1.27   4 2.15
  27  0.571  0.811  0.616-  39 1.27   3 2.15
  28  0.571  0.689  0.884-  40 1.27   3 2.15
  29  0.250  0.000  0.192-  45 1.10  12 1.27   9 1.27
  30  0.250  0.500  0.308-  46 1.10  11 1.27  10 1.27
  31  0.750  0.000  0.808-  47 1.10   8 1.27   5 1.27
  32  0.750  0.500  0.692-  48 1.10   7 1.27   6 1.27
  33  0.035  0.717  0.984-  49 1.11  21 1.27  13 1.27
  34  0.035  0.783  0.516-  50 1.11  22 1.27  14 1.27
  35  0.465  0.217  0.516-  51 1.11  23 1.27  15 1.27
  36  0.465  0.283  0.984-  52 1.11  24 1.27  16 1.27
  37  0.965  0.283  0.016-  53 1.11  25 1.27  17 1.27
  38  0.965  0.217  0.484-  54 1.11  26 1.27  18 1.27
  39  0.535  0.783  0.484-  55 1.11  27 1.27  19 1.27
  40  0.535  0.717  0.016-  56 1.11  28 1.27  20 1.27
  41  0.250  0.000  0.739-  89 1.33  85 1.34  88 1.34
  42  0.250  0.500  0.761-  90 1.33  86 1.34  87 1.34
  43  0.750  0.000  0.261-  91 1.33  84 1.34  81 1.34
  44  0.750  0.500  0.239-  92 1.33  83 1.34  82 1.34
  45  0.250  0.000  0.314-  29 1.10
  46  0.250  0.500  0.186-  30 1.10
  47  0.750  0.000  0.686-  31 1.10
  48  0.750  0.500  0.814-  32 1.10
  49  0.110  0.782  0.927-  33 1.11
  50  0.110  0.718  0.573-  34 1.11
  51  0.390  0.282  0.573-  35 1.11
  52  0.390  0.218  0.927-  36 1.11
  53  0.890  0.218  0.073-  37 1.11
  54  0.890  0.282  0.427-  38 1.11
  55  0.610  0.718  0.427-  39 1.11
  56  0.610  0.782  0.073-  40 1.11
  57  0.832  0.919  0.074-  81 1.03
  58  0.832  0.581  0.426-  82 1.03
  59  0.668  0.419  0.426-  83 1.03
  60  0.668  0.081  0.074-  84 1.03
[...]
  78  0.186  0.439  0.967-  90 1.03
  79  0.314  0.561  0.967-  90 1.03
  80  0.314  0.939  0.533-  89 1.03
  81  0.844  0.926  0.187-  65 1.02  57 1.03  43 1.34
  82  0.844  0.574  0.313-  66 1.02  58 1.03  44 1.34
  83  0.656  0.426  0.313-  67 1.02  59 1.03  44 1.34
  84  0.656  0.074  0.187-  68 1.02  60 1.03  43 1.34
  85  0.156  0.074  0.813-  69 1.02  61 1.03  41 1.34
  86  0.156  0.426  0.687-  70 1.02  62 1.03  42 1.34
  87  0.344  0.574  0.687-  71 1.02  63 1.03  42 1.34
  88  0.344  0.926  0.813-  72 1.02  64 1.03  41 1.34
  89  0.250  0.000  0.591-  77 1.03  80 1.03  41 1.33
  90  0.250  0.500  0.909-  78 1.03  79 1.03  42 1.33
  91  0.750  0.000  0.409-  73 1.03  76 1.03  43 1.33
  92  0.750  0.500  0.091-  74 1.03  75 1.03  44 1.33

  LATTYP: Found a simple orthorhombic cell.
 ALAT       =     8.2747183332
 B/A-ratio  =     1.0865793642
 C/A-ratio  =     1.4094942948

  Lattice vectors:

 A1 = (  -8.2747183332,   0.0000000000,   0.0000000000)
 A2 = (   0.0000000000,   0.0000000000,   8.9911381855)
 A3 = (   0.0000000000,  11.6631682815,   0.0000000000)

Analysis of symmetry for initial positions (statically):
 Subroutine PRICEL returns:
 Original cell was already a primitive cell.

 Routine SETGRP: Setting up the symmetry group for a
 simple orthorhombic supercell.

 Subroutine GETGRP returns: Found  8 space group operations
 (whereof  2 operations were pure point group operations)
 out of a pool of  8 trial point group operations.

The static configuration has the point symmetry S_2 .
 The point group associated with its full space group is D_2h.

Analysis of symmetry for dynamics (positions and initial velocities):
 Subroutine PRICEL returns:
 Original cell was already a primitive cell.

 Routine SETGRP: Setting up the symmetry group for a
 simple orthorhombic supercell.

 Subroutine GETGRP returns: Found  8 space group operations
 (whereof  2 operations were pure point group operations)
 out of a pool of  8 trial point group operations.

The dynamic configuration has the point symmetry S_2 .
 The point group associated with its full space group is D_2h.

 Subroutine INISYM returns: Found  8 space group operations
 (whereof  2 operations are pure point group operations),
 and found     1 'primitive' translations

                                     Primitive cell

  volume of cell :     867.7296

  direct lattice vectors                    reciprocal lattice vectors
     8.274718333  0.000000000  0.000000000     0.120850035  0.000000000  0.000000000
     0.000000000 11.663168282  0.000000000     0.000000000  0.085739996  0.000000000
     0.000000000  0.000000000  8.991138186     0.000000000  0.000000000  0.111220624

  length of vectors
     8.274718333 11.663168282  8.991138186     0.120850035  0.085739996  0.111220624

  position of ions in fractional coordinates (direct lattice)
     0.231663542  0.250000000  0.250000000
     0.268336458  0.750000000  0.250000000
     0.768336458  0.750000000  0.750000000
     0.731663542  0.250000000  0.750000000
     0.769271999  0.904801545  0.873966222
     0.769271999  0.595198455  0.626033778
     0.730728001  0.404801545  0.626033778
     0.730728001  0.095198455  0.873966222
     0.230728001  0.095198455  0.126033778
     0.230728001  0.404801545  0.373966222
     0.269271999  0.595198455  0.373966222
     0.269271999  0.904801545  0.126033778
     0.915465729  0.675002766  0.914159209
     0.915465729  0.824997234  0.585840791
     0.584534271  0.175002766  0.585840791
     0.584534271  0.324997234  0.914159209
     0.084534271  0.324997234  0.085840791
     0.084534271  0.175002766  0.414159209
     0.415465729  0.824997234  0.414159209
     0.415465729  0.675002766  0.085840791
     0.070559007  0.689377645  0.116466426
     0.070559007  0.810622355  0.383533574
     0.429440993  0.189377645  0.383533574
     0.429440993  0.310622355  0.116466426
     0.929440993  0.310622355  0.883533574
     0.929440993  0.189377645  0.616466426
     0.570559007  0.810622355  0.616466426
     0.570559007  0.689377645  0.883533574
     0.250000000  0.000000000  0.192323389
     0.250000000  0.500000000  0.307676611
     0.750000000  0.000000000  0.807676611
     0.750000000  0.500000000  0.692323389
     0.034606971  0.717477264  0.984319430
     0.034606971  0.782522736  0.515680570
     0.465393029  0.217477264  0.515680570
     0.465393029  0.282522736  0.984319430
     0.965393029  0.282522736  0.015680570
     0.965393029  0.217477264  0.484319430
     0.534606971  0.782522736  0.484319430
     0.534606971  0.717477264  0.015680570
     0.250000000  0.000000000  0.738982004
     0.250000000  0.500000000  0.761017996
     0.750000000  0.000000000  0.261017996
     0.750000000  0.500000000  0.238982004
     0.250000000  0.000000000  0.314489495
     0.250000000  0.500000000  0.185510505
     0.750000000  0.000000000  0.685510505
     0.750000000  0.500000000  0.814489495
[...]
   -.857E+02 -.839E+02 -.486E+02   0.790E+02 0.977E+02 0.876E+02   0.668E+01 -.138E+02 -.389E+02   0.225E-03 0.487E-02 0.411E-02
   -.857E+02 -.839E+02 0.486E+02   0.790E+02 0.977E+02 -.876E+02   0.668E+01 -.138E+02 0.389E+02   0.225E-03 0.487E-02 -.411E-02
   -.857E+02 0.839E+02 -.486E+02   0.790E+02 -.977E+02 0.876E+02   0.668E+01 0.138E+02 -.389E+02   0.225E-03 -.487E-02 0.411E-02
   0.857E+02 -.839E+02 -.486E+02   -.790E+02 0.977E+02 0.876E+02   -.668E+01 -.138E+02 -.389E+02   -.225E-03 0.487E-02 0.411E-02
   0.857E+02 0.839E+02 0.486E+02   -.790E+02 -.977E+02 -.876E+02   -.668E+01 0.138E+02 0.389E+02   -.225E-03 -.487E-02 -.411E-02
   -.121E-07 -.325E-08 -.875E+02   0.329E-13 0.352E-12 0.947E+02   0.274E-20 -.242E-20 -.721E+01   0.572E-11 0.218E-10 0.253E-02
   -.123E-07 -.329E-08 0.875E+02   0.361E-13 -.304E-12 -.947E+02   -.308E-20 0.216E-20 0.721E+01   -.217E-11 -.230E-10 -.253E-02
   0.120E-07 0.325E-08 0.875E+02   -.117E-13 0.343E-12 -.947E+02   -.289E-20 -.226E-20 0.721E+01   -.149E-10 -.121E-10 -.253E-02
   0.122E-07 0.331E-08 -.875E+02   0.926E-14 -.339E-12 0.947E+02   0.295E-20 0.117E-20 -.721E+01   -.945E-12 0.188E-10 0.253E-02
   -.772E+02 -.883E+02 0.846E+02   0.812E+02 0.932E+02 -.879E+02   -.398E+01 -.489E+01 0.325E+01   -.147E-03 -.687E-03 0.766E-03
   -.772E+02 0.883E+02 -.846E+02   0.812E+02 -.932E+02 0.879E+02   -.398E+01 0.489E+01 -.325E+01   -.147E-03 0.687E-03 -.766E-03
   0.772E+02 -.883E+02 -.846E+02   -.812E+02 0.932E+02 0.879E+02   0.398E+01 -.489E+01 -.325E+01   0.147E-03 -.687E-03 -.766E-03
   0.772E+02 0.883E+02 0.846E+02   -.812E+02 -.932E+02 -.879E+02   0.398E+01 0.489E+01 0.325E+01   0.147E-03 0.687E-03 0.766E-03
   0.772E+02 0.883E+02 -.846E+02   -.812E+02 -.932E+02 0.879E+02   0.398E+01 0.489E+01 -.325E+01   0.147E-03 0.687E-03 -.766E-03
   0.772E+02 -.883E+02 0.846E+02   -.812E+02 0.932E+02 -.879E+02   0.398E+01 -.489E+01 0.325E+01   0.147E-03 -.687E-03 0.766E-03
   -.772E+02 0.883E+02 0.846E+02   0.812E+02 -.932E+02 -.879E+02   -.398E+01 0.489E+01 0.325E+01   -.147E-03 0.687E-03 0.766E-03
   -.772E+02 -.883E+02 -.846E+02   0.812E+02 0.932E+02 0.879E+02   -.398E+01 -.489E+01 -.325E+01   -.147E-03 -.687E-03 -.766E-03
   0.692E-08 0.692E-09 -.188E+02   0.724E-15 0.398E-12 0.188E+02   -.294E-21 -.632E-21 -.152E-01   -.705E-11 0.889E-11 -.148E-02
   0.686E-08 0.663E-09 0.188E+02   0.536E-13 -.409E-12 -.188E+02   0.115E-21 0.115E-20 0.152E-01   0.205E-11 -.117E-10 0.148E-02
   -.696E-08 -.712E-09 0.188E+02   -.156E-13 0.417E-12 -.188E+02   0.111E-21 -.583E-21 0.152E-01   0.586E-11 -.834E-11 0.148E-02
   -.690E-08 -.630E-09 -.188E+02   -.114E-13 -.411E-12 0.188E+02   0.757E-22 0.266E-20 -.152E-01   -.569E-11 0.137E-10 -.148E-02
   0.184E-08 -.330E-09 -.490E+02   0.802E-14 0.990E-13 0.549E+02   0.392E-21 0.176E-21 -.588E+01   0.234E-11 0.574E-11 0.719E-03
   0.183E-08 -.330E-09 0.490E+02   0.396E-14 -.103E-12 -.549E+02   -.160E-20 -.219E-21 0.588E+01   0.722E-12 -.367E-11 -.719E-03
   -.184E-08 0.332E-09 0.490E+02   0.343E-15 0.966E-13 -.549E+02   0.241E-21 0.297E-21 0.588E+01   -.360E-11 -.473E-11 -.719E-03
   -.185E-08 0.332E-09 -.490E+02   -.317E-14 -.105E-12 0.549E+02   0.744E-21 -.379E-21 -.588E+01   -.628E-12 0.241E-11 0.719E-03
   -.310E+02 -.385E+02 0.371E+02   0.342E+02 0.424E+02 -.397E+02   -.325E+01 -.393E+01 0.262E+01   0.217E-03 0.969E-04 -.530E-04
   -.310E+02 0.385E+02 -.371E+02   0.342E+02 -.424E+02 0.397E+02   -.325E+01 0.393E+01 -.262E+01   0.217E-03 -.969E-04 0.530E-04
   0.310E+02 -.385E+02 -.371E+02   -.342E+02 0.424E+02 0.397E+02   0.325E+01 -.393E+01 -.262E+01   -.217E-03 0.969E-04 0.530E-04
   0.310E+02 0.385E+02 0.371E+02   -.342E+02 -.424E+02 -.397E+02   0.325E+01 0.393E+01 0.262E+01   -.217E-03 -.969E-04 -.530E-04
   0.310E+02 0.385E+02 -.371E+02   -.342E+02 -.424E+02 0.397E+02   0.325E+01 0.393E+01 -.262E+01   -.217E-03 -.969E-04 0.530E-04
   0.310E+02 -.385E+02 0.371E+02   -.342E+02 0.424E+02 -.397E+02   0.325E+01 -.393E+01 0.262E+01   -.217E-03 0.969E-04 -.530E-04
   -.310E+02 0.385E+02 0.371E+02   0.342E+02 -.424E+02 -.397E+02   -.325E+01 0.393E+01 0.262E+01   0.217E-03 -.969E-04 -.530E-04
   -.310E+02 -.385E+02 -.371E+02   0.342E+02 0.424E+02 0.397E+02   -.325E+01 -.393E+01 -.262E+01   0.217E-03 0.969E-04 0.530E-04
   -.297E+01 0.565E+01 0.421E+02   0.228E+01 -.633E+01 -.493E+02   0.670E+00 0.692E+00 0.722E+01   -.127E-03 -.233E-03 0.910E-04
   -.297E+01 -.565E+01 -.421E+02   0.228E+01 0.633E+01 0.493E+02   0.670E+00 -.692E+00 -.722E+01   -.127E-03 0.233E-03 -.910E-04
   0.297E+01 0.565E+01 -.421E+02   -.228E+01 -.633E+01 0.493E+02   -.670E+00 0.692E+00 -.722E+01   0.127E-03 -.233E-03 -.910E-04
   0.297E+01 -.565E+01 0.421E+02   -.228E+01 0.633E+01 -.493E+02   -.670E+00 -.692E+00 0.722E+01   0.127E-03 0.233E-03 0.910E-04
[...]
   -.246E+02 -.256E+02 -.210E+02   0.283E+02 0.306E+02 0.247E+02   -.373E+01 -.497E+01 -.374E+01   -.515E-04 -.110E-03 -.424E-04
   -.246E+02 0.256E+02 0.210E+02   0.283E+02 -.306E+02 -.247E+02   -.373E+01 0.497E+01 0.374E+01   -.515E-04 0.110E-03 0.424E-04
   -.421E+02 0.605E+02 0.601E+02   0.468E+02 -.655E+02 -.641E+02   -.471E+01 0.503E+01 0.400E+01   -.175E-02 -.679E-03 0.358E-02
   -.421E+02 -.605E+02 -.601E+02   0.468E+02 0.655E+02 0.641E+02   -.471E+01 -.503E+01 -.400E+01   -.175E-02 0.679E-03 -.358E-02
   0.421E+02 0.605E+02 -.601E+02   -.468E+02 -.655E+02 0.641E+02   0.471E+01 0.503E+01 -.400E+01   0.175E-02 -.679E-03 -.358E-02
   0.421E+02 -.605E+02 0.601E+02   -.468E+02 0.655E+02 -.641E+02   0.471E+01 -.503E+01 0.400E+01   0.175E-02 0.679E-03 0.358E-02
   0.421E+02 -.605E+02 -.601E+02   -.468E+02 0.655E+02 0.641E+02   0.471E+01 -.503E+01 -.400E+01   0.175E-02 0.679E-03 -.358E-02
   0.421E+02 0.605E+02 0.601E+02   -.468E+02 -.655E+02 -.641E+02   0.471E+01 0.503E+01 0.400E+01   0.175E-02 -.679E-03 0.358E-02
   -.421E+02 -.605E+02 0.601E+02   0.468E+02 0.655E+02 -.641E+02   -.471E+01 -.503E+01 0.400E+01   -.175E-02 0.679E-03 0.358E-02
   -.421E+02 0.605E+02 -.601E+02   0.468E+02 -.655E+02 0.641E+02   -.471E+01 0.503E+01 -.400E+01   -.175E-02 -.679E-03 -.358E-02
   0.815E-08 -.341E-08 0.682E+02   0.139E-13 0.461E-12 -.761E+02   0.109E-20 0.167E-20 0.791E+01   0.293E-10 0.107E-10 -.171E-03
   0.817E-08 -.343E-08 -.682E+02   0.149E-14 -.489E-12 0.761E+02   0.256E-20 0.162E-20 -.791E+01   -.250E-10 -.367E-10 0.171E-03
   -.823E-08 0.341E-08 -.682E+02   -.286E-13 0.457E-12 0.761E+02   0.294E-20 -.156E-20 -.791E+01   -.270E-10 -.436E-11 0.171E-03
   -.827E-08 0.344E-08 0.682E+02   -.316E-13 -.453E-12 -.761E+02   -.803E-21 0.218E-21 0.791E+01   0.251E-10 0.361E-10 -.171E-03
   -.269E-08 0.146E-09 0.464E-09   0.760E-13 -.109E-12 -.142E-12   -.444E-14 0.115E-13 0.888E-14   -.282E-09 -.575E-11 -.772E-10

 POSITION                                       TOTAL-FORCE (eV/Angst)
      1.91695      2.91579      2.24778        -0.000046      0.000000     -0.000000
      2.22041      8.74738      2.24778         0.000046      0.000000     -0.000000
      6.35777      8.74738      6.74335         0.000046      0.000000     -0.000000
      6.05431      2.91579      6.74335        -0.000046      0.000000     -0.000000
      6.36551     10.55285      7.85795         0.000029      0.001989      0.000272
      6.36551      6.94190      5.62876         0.000029     -0.001989     -0.000272
      6.04657      4.72127      5.62876        -0.000029      0.001989     -0.000272
      6.04657      1.11032      7.85795        -0.000029     -0.001989      0.000272
      1.90921      1.11032      1.13319        -0.000029     -0.001989     -0.000272
      1.90921      4.72127      3.36238        -0.000029      0.001989      0.000272
      2.22815      6.94190      3.36238         0.000029     -0.001989      0.000272
      2.22815     10.55285      1.13319         0.000029      0.001989     -0.000272
      7.57522      7.87267      8.21933         0.003622     -0.000142     -0.002451
      7.57522      9.62208      5.26738         0.003622      0.000142      0.002451
      4.83686      2.04109      5.26738        -0.003622     -0.000142      0.002451
      4.83686      3.79050      8.21933        -0.003622      0.000142     -0.002451
      0.69950      3.79050      0.77181        -0.003622      0.000142      0.002451
      0.69950      2.04109      3.72376        -0.003622     -0.000142     -0.002451
      3.43786      9.62208      3.72376         0.003622      0.000142     -0.002451
      3.43786      7.87267      0.77181         0.003622     -0.000142      0.002451
      0.58386      8.04033      1.04717        -0.001233     -0.000030      0.001138
      0.58386      9.45442      3.44840        -0.001233      0.000030     -0.001138
      3.55350      2.20874      3.44840         0.001233     -0.000030     -0.001138
      3.55350      3.62284      1.04717         0.001233      0.000030      0.001138
      7.69086      3.62284      7.94397         0.001233      0.000030     -0.001138
      7.69086      2.20874      5.54273         0.001233     -0.000030      0.001138
      4.72122      9.45442      5.54273        -0.001233      0.000030      0.001138
      4.72122      8.04033      7.94397        -0.001233     -0.000030     -0.001138
      2.06868      0.00000      1.72921        -0.000000      0.000000      0.000368
      2.06868      5.83158      2.76636        -0.000000      0.000000     -0.000368
      6.20604      0.00000      7.26193        -0.000000      0.000000     -0.000368
      6.20604      5.83158      6.22478        -0.000000      0.000000      0.000368
      0.28636      8.36806      8.85015         0.001277     -0.000401      0.001727
      0.28636      9.12669      4.63656         0.001277      0.000401     -0.001727
      3.85100      2.53647      4.63656        -0.001277     -0.000401     -0.001727
      3.85100      3.29511      8.85015        -0.001277      0.000401      0.001727
      7.98836      3.29511      0.14099        -0.001277      0.000401     -0.001727
      7.98836      2.53647      4.35458        -0.001277     -0.000401      0.001727
      4.42372      9.12669      4.35458         0.001277      0.000401      0.001727
      4.42372      8.36806      0.14099         0.001277     -0.000401     -0.001727
      2.06868      0.00000      6.64429        -0.000000      0.000000     -0.001752
      2.06868      5.83158      6.84242        -0.000000      0.000000      0.001752
      6.20604      0.00000      2.34685        -0.000000      0.000000      0.001752
      6.20604      5.83158      2.14872        -0.000000      0.000000     -0.001752
      2.06868      0.00000      2.82762        -0.000000      0.000000     -0.002850
      2.06868      5.83158      1.66795        -0.000000      0.000000      0.002850
      6.20604      0.00000      6.16352        -0.000000      0.000000      0.002850
      6.20604      5.83158      7.32319        -0.000000      0.000000     -0.002850
      0.91221      9.12527      8.33928         0.000386      0.000106     -0.003213
      0.91221      8.36948      5.14743         0.000386     -0.000106      0.003213
      3.22515      3.29369      5.14743        -0.000386      0.000106      0.003213
      3.22515      2.53789      8.33928        -0.000386     -0.000106     -0.003213
      7.36251      2.53789      0.65186        -0.000386     -0.000106      0.003213
      7.36251      3.29369      3.84371        -0.000386      0.000106     -0.003213
      5.04957      8.36948      3.84371         0.000386     -0.000106     -0.003213
      5.04957      9.12527      0.65186         0.000386      0.000106      0.003213
      6.88728     10.71299      0.66328        -0.000992      0.002021     -0.003326
      6.88728      6.78177      3.83228        -0.000992     -0.002021      0.003326
      5.52479      4.88140      3.83228         0.000992      0.002021      0.003326
      5.52479      0.95018      0.66328         0.000992     -0.002021     -0.003326
[...]
      1.53558      5.12242      8.69352        -0.000066      0.001904     -0.000713
      2.60178      6.54075      8.69352         0.000066     -0.001904     -0.000713
      2.60178     10.95400      4.79319         0.000066      0.001904      0.000713
      6.98544     10.80082      1.68021         0.000071      0.001277     -0.003921
      6.98544      6.69394      2.81536         0.000071     -0.001277      0.003921
      5.42664      4.96923      2.81536        -0.000071      0.001277      0.003921
      5.42664      0.86235      1.68021        -0.000071     -0.001277     -0.003921
      1.28928      0.86235      7.31093        -0.000071     -0.001277      0.003921
      1.28928      4.96923      6.17577        -0.000071      0.001277     -0.003921
      2.84808      6.69394      6.17577         0.000071     -0.001277     -0.003921
      2.84808     10.80082      7.31093         0.000071      0.001277      0.003921
      2.06868      0.00000      5.31039        -0.000000      0.000000      0.001044
      2.06868      5.83158      8.17632        -0.000000      0.000000     -0.001044
      6.20604      0.00000      3.68075        -0.000000      0.000000     -0.001044
      6.20604      5.83158      0.81482        -0.000000      0.000000      0.001044
    total drift:                               -0.000000      0.000000      0.000000

  FREE ENERGIE OF THE ION-ELECTRON SYSTEM (eV)
  free  energy   TOTEN  =      -566.10236276 eV

  energy  without entropy=     -566.10236276  energy(sigma->0) =     -566.10236276

 writing wavefunctions

 total charge

# of ion       s       p       d       tot
    1        0.356   0.355   9.906  10.616
    2        0.356   0.355   9.906  10.616
    3        0.356   0.355   9.906  10.616
    4        0.356   0.355   9.906  10.616
    5        1.569   3.573   0.000   5.142
    6        1.569   3.573   0.000   5.142
    7        1.569   3.573   0.000   5.142
    8        1.569   3.573   0.000   5.142
    9        1.569   3.573   0.000   5.142
   10        1.569   3.573   0.000   5.142
   11        1.569   3.573   0.000   5.142
   12        1.569   3.573   0.000   5.142
   13        1.567   3.577   0.000   5.144
   14        1.567   3.577   0.000   5.144
   15        1.567   3.577   0.000   5.144
   16        1.567   3.577   0.000   5.144
   17        1.567   3.577   0.000   5.144
   18        1.567   3.577   0.000   5.144
   19        1.567   3.577   0.000   5.144
   20        1.567   3.577   0.000   5.144
   21        1.568   3.577   0.000   5.146
   22        1.568   3.577   0.000   5.146
   23        1.568   3.577   0.000   5.146
   24        1.568   3.577   0.000   5.146
   25        1.568   3.577   0.000   5.146
   26        1.568   3.577   0.000   5.146
   27        1.568   3.577   0.000   5.146
   28        1.568   3.577   0.000   5.146
   29        0.874   1.707   0.000   2.582
   30        0.874   1.707   0.000   2.582
   31        0.874   1.707   0.000   2.582
   32        0.874   1.707   0.000   2.582
   33        0.872   1.704   0.000   2.576
   34        0.872   1.704   0.000   2.576
   35        0.872   1.704   0.000   2.576
   36        0.872   1.704   0.000   2.576
   37        0.872   1.704   0.000   2.576
   38        0.872   1.704   0.000   2.576
   39        0.872   1.704   0.000   2.576
   40        0.872   1.704   0.000   2.576
   41        0.855   1.759   0.000   2.614
   42        0.855   1.759   0.000   2.614
   43        0.855   1.759   0.000   2.614
   44        0.855   1.759   0.000   2.614
   45        0.650   0.047   0.000   0.697
   46        0.650   0.047   0.000   0.697
   47        0.650   0.047   0.000   0.697
   48        0.650   0.047   0.000   0.697
   49        0.640   0.045   0.000   0.685
   50        0.640   0.045   0.000   0.685
   51        0.640   0.045   0.000   0.685
   52        0.640   0.045   0.000   0.685
   53        0.640   0.045   0.000   0.685
   54        0.640   0.045   0.000   0.685
   55        0.640   0.045   0.000   0.685
   56        0.640   0.045   0.000   0.685
   57        0.605   0.094   0.000   0.699
   58        0.605   0.094   0.000   0.699
   59        0.605   0.094   0.000   0.699
   60        0.605   0.094   0.000   0.699
[...]
   78        0.604   0.094   0.000   0.697
   79        0.604   0.094   0.000   0.697
   80        0.604   0.094   0.000   0.697
   81        1.209   2.807   0.000   4.016
   82        1.209   2.807   0.000   4.016
   83        1.209   2.807   0.000   4.016
   84        1.209   2.807   0.000   4.016
   85        1.209   2.807   0.000   4.016
   86        1.209   2.807   0.000   4.016
   87        1.209   2.807   0.000   4.016
   88        1.209   2.807   0.000   4.016
   89        1.211   2.811   0.000   4.022
   90        1.211   2.811   0.000   4.022
   91        1.211   2.811   0.000   4.022
   92        1.211   2.811   0.000   4.022
tot         89.689 151.240  39.623 280.553