 vasp.6.3.0 20Jan22 (build Feb 18 2022 09:23:16) complex

 INCAR:
   AMIX = 0.1
   IVDW = 11           (DFT-D3 method of method with no damping)
   ISPIN = 2 (Spin polarised DFT)
   ISTART = 1            (Read existing wavefunction
   ICHARG = 11         (Non-self-consistent: GGA/LDA band structures)
   LORBIT = 11
   LASPH = T
   GGA_COMPAT = .FALSE.
   LREAL = .FALSE.       (Projection operators: automatic)
   ENCUT = 850.0      (Cut-off energy for plane wave basis set, in eV)
   ENAUG = 1500.0
   PREC = Accurate     (Precision level)
   LMAXMIX = 4
   LWAVE = .TRUE.        (Write WAVECAR or not)
   LCHARG = .TRUE.        (Write CHGCAR or not)
   ADDGRID = .TRUE.        (Increase grid
   LPLANE = .TRUE.      (Real space distribution
   NWRITE = 2           (Medium-level output)
   KPAR = 2           (Divides k-grid into separate groups)
   NSW = 0          (number of ionic steps)
   ISMEAR = 0            (gaussian smearing method )
   SIGMA = 0.05         (please check the width of the smearing)
   IBRION = -1            (Algorithm: 0-MD
   ISIF = 3            (optimize atomic coordinates and lattice parameters)
   EDIFFG = -0.005       (Ionic convergence
   EDIFF = 1.0d-8
   NELM = 150
   NELMIN = 6
   NELMDL = -8
   ALGO = Normal
   MAGMOM = 4 -4 4 -4   88*0
   LCALCPOL = T

 POTCAR:    PAW_PBE Fe 06Sep2000
 POTCAR:    PAW_PBE C 08Apr2002
 POTCAR:    PAW_PBE H 15Jun2001
 POTCAR:    PAW_PBE N 08Apr2002
 POTCAR:    PAW_PBE O 08Apr2002
|           W    W    AA    RRRRR   N    N  II  N    N   GGGG   !!!           |
|           W    W   A  A   R    R  NN   N  II  NN   N  G    G  !!!           |
|           W    W  A    A  R    R  N N  N  II  N N  N  G       !!!           |
|           W WW W  AAAAAA  RRRRR   N  N N  II  N  N N  G  GGG   !            |
|           WW  WW  A    A  R   R   N   NN  II  N   NN  G    G                |
|           W    W  A    A  R    R  N    N  II  N    N   GGGG   !!!           |
|     For optimal performance we recommend to set                             |
|       NCORE = 2 up to number-of-cores-per-socket                            |
|     This setting can greatly improve the performance of VASP for DFT.       |
|     The default, NCORE=1 might be grossly inefficient on modern             |
|     multi-core architectures or massively parallel machines. Do your        |
|     Unfortunately you need to use the default for GW and RPA                |
|     calculations (for HF NCORE is supported but not extensively tested      |
|     yet).                                                                   |

   TITEL  = PAW_PBE Fe 06Sep2000
   POMASS =   55.847; ZVAL   =    8.000    mass and valenz
   ENMAX  =  267.882; ENMIN  =  200.911 eV

   TITEL  = PAW_PBE C 08Apr2002
   POMASS =   12.011; ZVAL   =    4.000    mass and valenz
   ENMAX  =  400.000; ENMIN  =  300.000 eV

   TITEL  = PAW_PBE H 15Jun2001
   POMASS =    1.000; ZVAL   =    1.000    mass and valenz
   ENMAX  =  250.000; ENMIN  =  200.000 eV

[...]

   TITEL  = PAW_PBE O 08Apr2002
   POMASS =   16.000; ZVAL   =    6.000    mass and valenz
   ENMAX  =  400.000; ENMIN  =  300.000 eV

  PAW_PBE Fe 06Sep2000                  :
  PAW_PBE C 08Apr2002                   :
  PAW_PBE H 15Jun2001                   :
  PAW_PBE N 08Apr2002                   :
  PAW_PBE O 08Apr2002                   :

 POSCAR: crystal
  positions in direct lattice
  velocities in cartesian coordinates
 exchange correlation table for  LEXCH =        8
   RHO(1)=    0.500       N(1)  =     2000
   RHO(2)=  100.500       N(2)  =     4000

 ion  position               nearest neighbor table
   1  0.259  0.250  0.250-  77 2.10  79 2.10  90 2.13  92 2.13  71 2.17  69 2.17
   2  0.241  0.750  0.250-  78 2.10  80 2.10  89 2.13  91 2.13  72 2.17  70 2.17
   3  0.741  0.750  0.750-  81 2.10  83 2.10  86 2.13  88 2.13  73 2.17  75 2.17
   4  0.759  0.250  0.750-  82 2.10  84 2.10  85 2.13  87 2.13  74 2.17  76 2.17
   5  0.250  0.500  0.313-  21 1.10  70 1.27  69 1.27
   6  0.250  0.000  0.187-  22 1.10  72 1.27  71 1.27
   7  0.750  0.500  0.687-  23 1.10  73 1.27  74 1.27
   8  0.750  0.000  0.813-  24 1.10  75 1.27  76 1.27
   9  0.533  0.219  0.482-  41 1.11  77 1.27  85 1.27
  10  0.967  0.781  0.482-  42 1.11  78 1.27  86 1.27
  11  0.533  0.281  0.018-  43 1.11  79 1.27  87 1.27
  12  0.967  0.719  0.018-  44 1.11  80 1.27  88 1.27
  13  0.467  0.781  0.518-  45 1.11  81 1.27  89 1.27
  14  0.033  0.219  0.518-  46 1.11  82 1.27  90 1.27
  15  0.467  0.719  0.982-  47 1.11  83 1.27  91 1.27
  16  0.033  0.281  0.982-  48 1.11  84 1.27  92 1.27
  17  0.250  0.500  0.765-  65 1.34  58 1.34  57 1.34
  18  0.250  0.000  0.735-  66 1.34  60 1.34  59 1.34
  19  0.750  0.500  0.235-  67 1.34  62 1.34  61 1.34
  20  0.750  0.000  0.265-  68 1.34  64 1.34  63 1.34
  21  0.250  0.500  0.191-   5 1.10
  22  0.250  0.000  0.309-   6 1.10
  23  0.750  0.500  0.809-   7 1.10
  24  0.750  0.000  0.691-   8 1.10
  25  0.328  0.418  0.578-  57 1.03
  26  0.172  0.582  0.578-  58 1.03
  27  0.328  0.082  0.922-  59 1.03
  28  0.172  0.918  0.922-  60 1.03
  29  0.672  0.582  0.422-  61 1.03
  30  0.828  0.418  0.422-  62 1.03
  31  0.672  0.918  0.078-  63 1.03
  32  0.828  0.082  0.078-  64 1.03
  33  0.420  0.376  0.750-  57 1.02
  34  0.080  0.624  0.750-  58 1.02
  35  0.420  0.124  0.750-  59 1.02
  36  0.080  0.876  0.750-  60 1.02
  37  0.580  0.624  0.250-  61 1.02
  38  0.920  0.376  0.250-  62 1.02
  39  0.580  0.876  0.250-  63 1.02
  40  0.920  0.124  0.250-  64 1.02
  41  0.615  0.278  0.424-   9 1.11
  42  0.885  0.722  0.424-  10 1.11
  43  0.615  0.222  0.076-  11 1.11
  44  0.885  0.778  0.076-  12 1.11
  45  0.385  0.722  0.576-  13 1.11
  46  0.115  0.278  0.576-  14 1.11
  47  0.385  0.778  0.924-  15 1.11
  48  0.115  0.222  0.924-  16 1.11
  49  0.189  0.562  0.972-  65 1.03
  50  0.311  0.438  0.972-  65 1.03
  51  0.189  0.938  0.528-  66 1.03
  52  0.311  0.062  0.528-  66 1.03
  53  0.811  0.438  0.028-  67 1.03
  54  0.689  0.562  0.028-  67 1.03
  55  0.811  0.062  0.472-  68 1.03
  56  0.689  0.938  0.472-  68 1.03
  57  0.340  0.425  0.691-  33 1.02  25 1.03  17 1.34
  58  0.160  0.575  0.691-  34 1.02  26 1.03  17 1.34
  59  0.340  0.075  0.809-  35 1.02  27 1.03  18 1.34
  60  0.160  0.925  0.809-  36 1.02  28 1.03  18 1.34
[...]
  78  0.087  0.819  0.411-  10 1.27   2 2.10
  79  0.413  0.319  0.089-  11 1.27   1 2.10
  80  0.087  0.681  0.089-  12 1.27   2 2.10
  81  0.587  0.819  0.589-  13 1.27   3 2.10
  82  0.913  0.181  0.589-  14 1.27   4 2.10
  83  0.587  0.681  0.911-  15 1.27   3 2.10
  84  0.913  0.319  0.911-  16 1.27   4 2.10
  85  0.565  0.193  0.616-   9 1.27   4 2.13
  86  0.935  0.807  0.616-  10 1.27   3 2.13
  87  0.565  0.307  0.884-  11 1.27   4 2.13
  88  0.935  0.693  0.884-  12 1.27   3 2.13
  89  0.435  0.807  0.384-  13 1.27   2 2.13
  90  0.065  0.193  0.384-  14 1.27   1 2.13
  91  0.435  0.693  0.116-  15 1.27   2 2.13
  92  0.065  0.307  0.116-  16 1.27   1 2.13

  LATTYP: Found a simple orthorhombic cell.
 ALAT       =     8.3479028880
 B/A-ratio  =     1.0757028647
 C/A-ratio  =     1.4114618895

  Lattice vectors:

 A1 = (  -8.3479028880,   0.0000000000,   0.0000000000)
 A2 = (   0.0000000000,   0.0000000000,   8.9798630508)
 A3 = (   0.0000000000,  11.7827467836,   0.0000000000)

Analysis of symmetry for initial positions (statically):
 Subroutine PRICEL returns:
 Original cell was already a primitive cell.

 Routine SETGRP: Setting up the symmetry group for a
 simple orthorhombic supercell.

 Subroutine GETGRP returns: Found  8 space group operations
 (whereof  2 operations were pure point group operations)
 out of a pool of  8 trial point group operations.

The static configuration has the point symmetry S_2 .
 The point group associated with its full space group is D_2h.

Analysis of symmetry for dynamics (positions and initial velocities):
 Subroutine PRICEL returns:
 Original cell was already a primitive cell.

[...]

The dynamic configuration has the point symmetry S_2 .
 The point group associated with its full space group is D_2h.

Analysis of structural, dynamic, and magnetic symmetry:
 Subroutine PRICEL returns:
 Original cell was already a primitive cell.

 Routine SETGRP: Setting up the symmetry group for a
 simple orthorhombic supercell.

 Subroutine GETGRP returns: Found  8 space group operations
 (whereof  2 operations were pure point group operations)
 out of a pool of  8 trial point group operations.

The overall configuration has the point symmetry S_2 .
 The point group associated with its full space group is D_2h.

 Subroutine INISYM returns: Found  8 space group operations
 (whereof  2 operations are pure point group operations),
 and found     1 'primitive' translations

                                     Primitive cell

  volume of cell :     883.2703

  direct lattice vectors                    reciprocal lattice vectors
     8.347902888  0.000000000 -0.000000000     0.119790565  0.000000000  0.000000000
     0.000000000 11.782746784  0.000000000    -0.000000000  0.084869854  0.000000000
     0.000000000  0.000000000  8.979863051     0.000000000 -0.000000000  0.111360273

  length of vectors
     8.347902888 11.782746784  8.979863051     0.119790565  0.084869854  0.111360273

  position of ions in fractional coordinates (direct lattice)
     0.259313829  0.250000000  0.250000000
     0.240686171  0.750000000  0.250000000
     0.740686171  0.750000000  0.750000000
     0.759313829  0.250000000  0.750000000
     0.250000000  0.500000000  0.313058809
     0.250000000  0.000000000  0.186941191
     0.750000000  0.500000000  0.686941191
     0.750000000  0.000000000  0.813058809
     0.533306193  0.218996593  0.481615997
     0.966693807  0.781003407  0.481615997
     0.533306193  0.281003407  0.018384003
     0.966693807  0.718996593  0.018384003
     0.466693807  0.781003407  0.518384003
     0.033306193  0.218996593  0.518384003
     0.466693807  0.718996593  0.981615997
     0.033306193  0.281003407  0.981615997
     0.250000000  0.500000000  0.765496541
     0.250000000  0.000000000  0.734503459
     0.750000000  0.500000000  0.234503459
     0.750000000  0.000000000  0.265496541
     0.250000000  0.500000000  0.190508438
     0.250000000  0.000000000  0.309491562
     0.750000000  0.500000000  0.809491562
     0.750000000  0.000000000  0.690508438
     0.327829481  0.417711774  0.577928730
     0.172170519  0.582288226  0.577928730
     0.327829481  0.082288226  0.922071270
     0.172170519  0.917711774  0.922071270
     0.672170519  0.582288226  0.422071270
     0.827829481  0.417711774  0.422071270
     0.672170519  0.917711774  0.077928730
     0.827829481  0.082288226  0.077928730
     0.419961377  0.375983486  0.749671572
     0.080038623  0.624016514  0.749671572
     0.419961377  0.124016514  0.750328428
     0.080038623  0.875983486  0.750328428
     0.580038623  0.624016514  0.250328428
     0.919961377  0.375983486  0.250328428
     0.580038623  0.875983486  0.249671572
     0.919961377  0.124016514  0.249671572
     0.614841014  0.278472084  0.423740821
     0.885158986  0.721527916  0.423740821
     0.614841014  0.221527916  0.076259179
[...]
   -.310E+01 0.696E+01 0.437E+02   0.240E+01 -.760E+01 -.508E+02   0.691E+00 0.661E+00 0.717E+01   -.212E-03 0.152E-03 0.898E-04
   0.310E+01 -.696E+01 0.437E+02   -.240E+01 0.760E+01 -.508E+02   -.691E+00 -.661E+00 0.717E+01   0.212E-03 -.152E-03 0.898E-04
   -.310E+01 -.696E+01 -.437E+02   0.240E+01 0.760E+01 0.508E+02   0.691E+00 -.661E+00 -.717E+01   -.212E-03 -.152E-03 -.898E-04
   0.310E+01 0.696E+01 -.437E+02   -.240E+01 -.760E+01 0.508E+02   -.691E+00 0.661E+00 -.717E+01   0.212E-03 0.152E-03 -.898E-04
   0.310E+01 -.696E+01 -.437E+02   -.240E+01 0.760E+01 0.508E+02   -.691E+00 -.661E+00 -.717E+01   0.212E-03 -.152E-03 -.898E-04
   -.310E+01 0.696E+01 -.437E+02   0.240E+01 -.760E+01 0.508E+02   0.691E+00 0.661E+00 -.717E+01   -.212E-03 0.152E-03 -.898E-04
   0.310E+01 0.696E+01 0.437E+02   -.240E+01 -.760E+01 -.508E+02   -.691E+00 0.661E+00 0.717E+01   0.212E-03 0.152E-03 0.898E-04
   -.310E+01 -.696E+01 0.437E+02   0.240E+01 0.760E+01 -.508E+02   0.691E+00 -.661E+00 0.717E+01   -.212E-03 -.152E-03 0.898E-04
   -.249E+02 0.275E+02 -.151E+02   0.297E+02 -.316E+02 0.187E+02   -.480E+01 0.412E+01 -.367E+01   -.681E-04 0.138E-04 -.225E-05
   0.249E+02 -.275E+02 -.151E+02   -.297E+02 0.316E+02 0.187E+02   0.480E+01 -.412E+01 -.367E+01   0.681E-04 -.138E-04 -.225E-05
   -.249E+02 -.275E+02 0.151E+02   0.297E+02 0.316E+02 -.187E+02   -.480E+01 -.412E+01 0.367E+01   -.681E-04 -.138E-04 0.225E-05
   0.249E+02 0.275E+02 0.151E+02   -.297E+02 -.316E+02 -.187E+02   0.480E+01 0.412E+01 0.367E+01   0.681E-04 0.138E-04 0.225E-05
   0.249E+02 -.275E+02 0.151E+02   -.297E+02 0.316E+02 -.187E+02   0.480E+01 -.412E+01 0.367E+01   0.681E-04 -.138E-04 0.225E-05
   -.249E+02 0.275E+02 0.151E+02   0.297E+02 -.316E+02 -.187E+02   -.480E+01 0.412E+01 0.367E+01   -.681E-04 0.138E-04 0.225E-05
   0.249E+02 0.275E+02 -.151E+02   -.297E+02 -.316E+02 0.187E+02   0.480E+01 0.412E+01 -.367E+01   0.681E-04 0.138E-04 -.225E-05
   -.249E+02 -.275E+02 -.151E+02   0.297E+02 0.316E+02 0.187E+02   -.480E+01 -.412E+01 -.367E+01   -.681E-04 -.138E-04 -.225E-05
   -.316E+02 -.348E+02 0.363E+02   0.351E+02 0.385E+02 -.390E+02   -.354E+01 -.366E+01 0.268E+01   0.210E-03 0.164E-03 -.152E-03
   0.316E+02 0.348E+02 0.363E+02   -.351E+02 -.385E+02 -.390E+02   0.354E+01 0.366E+01 0.268E+01   -.210E-03 -.164E-03 -.152E-03
   -.316E+02 0.348E+02 -.363E+02   0.351E+02 -.385E+02 0.390E+02   -.354E+01 0.366E+01 -.268E+01   0.210E-03 -.164E-03 0.152E-03
   0.316E+02 -.348E+02 -.363E+02   -.351E+02 0.385E+02 0.390E+02   0.354E+01 -.366E+01 -.268E+01   -.210E-03 0.164E-03 0.152E-03
   0.316E+02 0.348E+02 -.363E+02   -.351E+02 -.385E+02 0.390E+02   0.354E+01 0.366E+01 -.268E+01   -.210E-03 -.164E-03 0.152E-03
   -.316E+02 -.348E+02 -.363E+02   0.351E+02 0.385E+02 0.390E+02   -.354E+01 -.366E+01 -.268E+01   0.210E-03 0.164E-03 0.152E-03
   0.316E+02 -.348E+02 0.363E+02   -.351E+02 0.385E+02 -.390E+02   0.354E+01 -.366E+01 0.268E+01   -.210E-03 0.164E-03 -.152E-03
   -.316E+02 0.348E+02 0.363E+02   0.351E+02 -.385E+02 -.390E+02   -.354E+01 0.366E+01 0.268E+01   0.210E-03 -.164E-03 -.152E-03
   0.241E+02 -.282E+02 -.253E+02   -.277E+02 0.334E+02 0.290E+02   0.358E+01 -.515E+01 -.375E+01   -.151E-03 0.195E-03 -.253E-04
   -.241E+02 0.282E+02 -.253E+02   0.277E+02 -.334E+02 0.290E+02   -.358E+01 0.515E+01 -.375E+01   0.151E-03 -.195E-03 -.253E-04
   0.241E+02 0.282E+02 0.253E+02   -.277E+02 -.334E+02 -.290E+02   0.358E+01 0.515E+01 0.375E+01   -.151E-03 -.195E-03 0.253E-04
   -.241E+02 -.282E+02 0.253E+02   0.277E+02 0.334E+02 -.290E+02   -.358E+01 -.515E+01 0.375E+01   0.151E-03 0.195E-03 0.253E-04
   -.241E+02 0.282E+02 0.253E+02   0.277E+02 -.334E+02 -.290E+02   -.358E+01 0.515E+01 0.375E+01   0.151E-03 -.195E-03 0.253E-04
   0.241E+02 -.282E+02 0.253E+02   -.277E+02 0.334E+02 -.290E+02   0.358E+01 -.515E+01 0.375E+01   -.151E-03 0.195E-03 0.253E-04
   -.241E+02 -.282E+02 -.253E+02   0.277E+02 0.334E+02 0.290E+02   -.358E+01 -.515E+01 -.375E+01   0.151E-03 0.195E-03 -.253E-04
   0.241E+02 0.282E+02 -.253E+02   -.277E+02 -.334E+02 0.290E+02   0.358E+01 0.515E+01 -.375E+01   -.151E-03 -.195E-03 -.253E-04
   -.475E+02 0.657E+02 0.609E+02   0.519E+02 -.711E+02 -.651E+02   -.442E+01 0.541E+01 0.421E+01   -.216E-02 0.909E-03 -.296E-04
   0.475E+02 -.657E+02 0.609E+02   -.519E+02 0.711E+02 -.651E+02   0.442E+01 -.541E+01 0.421E+01   0.216E-02 -.909E-03 -.296E-04
   -.475E+02 -.657E+02 -.609E+02   0.519E+02 0.711E+02 0.651E+02   -.442E+01 -.541E+01 -.421E+01   -.216E-02 -.909E-03 0.296E-04
   0.475E+02 0.657E+02 -.609E+02   -.519E+02 -.711E+02 0.651E+02   0.442E+01 0.541E+01 -.421E+01   0.216E-02 0.909E-03 0.296E-04
[...]
   0.247E+02 -.896E+02 -.450E+02   -.561E+02 0.109E+03 0.633E+02   0.314E+02 -.189E+02 -.184E+02   -.169E-02 0.241E-02 0.343E-02
   -.247E+02 0.896E+02 -.450E+02   0.561E+02 -.109E+03 0.633E+02   -.314E+02 0.189E+02 -.184E+02   0.169E-02 -.241E-02 0.343E-02
   -.247E+02 -.896E+02 -.450E+02   0.561E+02 0.109E+03 0.633E+02   -.314E+02 -.189E+02 -.184E+02   0.169E-02 0.241E-02 0.343E-02
   0.247E+02 0.896E+02 -.450E+02   -.561E+02 -.109E+03 0.633E+02   0.314E+02 0.189E+02 -.184E+02   -.169E-02 -.241E-02 0.343E-02
   -.247E+02 0.896E+02 0.450E+02   0.561E+02 -.109E+03 -.633E+02   -.314E+02 0.189E+02 0.184E+02   0.169E-02 -.241E-02 -.343E-02
   0.247E+02 -.896E+02 0.450E+02   -.561E+02 0.109E+03 -.633E+02   0.314E+02 -.189E+02 0.184E+02   -.169E-02 0.241E-02 -.343E-02
   0.419E+02 0.657E+02 -.794E+02   -.371E+02 -.788E+02 0.118E+03   -.483E+01 0.131E+02 -.385E+02   -.216E-02 -.899E-03 0.254E-02
   -.419E+02 -.657E+02 -.794E+02   0.371E+02 0.788E+02 0.118E+03   0.483E+01 -.131E+02 -.385E+02   0.216E-02 0.899E-03 0.254E-02
   0.419E+02 -.657E+02 0.794E+02   -.371E+02 0.788E+02 -.118E+03   -.483E+01 -.131E+02 0.385E+02   -.216E-02 0.899E-03 -.254E-02
   -.419E+02 0.657E+02 0.794E+02   0.371E+02 -.788E+02 -.118E+03   0.483E+01 0.131E+02 0.385E+02   0.216E-02 -.899E-03 -.254E-02
   -.419E+02 -.657E+02 0.794E+02   0.371E+02 0.788E+02 -.118E+03   0.483E+01 -.131E+02 0.385E+02   0.216E-02 0.899E-03 -.254E-02
   0.419E+02 0.657E+02 0.794E+02   -.371E+02 -.788E+02 -.118E+03   -.483E+01 0.131E+02 0.385E+02   -.216E-02 -.899E-03 -.254E-02
   -.419E+02 0.657E+02 -.794E+02   0.371E+02 -.788E+02 0.118E+03   0.483E+01 0.131E+02 -.385E+02   0.216E-02 -.899E-03 0.254E-02
   0.419E+02 -.657E+02 -.794E+02   -.371E+02 0.788E+02 0.118E+03   -.483E+01 -.131E+02 -.385E+02   -.216E-02 0.899E-03 0.254E-02
   -.314E-08 0.150E-08 0.150E-09   -.711E-13 -.256E-12 0.114E-12   -.888E-15 0.000E+00 -.711E-14   0.239E-09 0.646E-12 0.914E-10

 POSITION                                       TOTAL-FORCE (eV/Angst)
      2.16473      2.94569      2.24497         0.002355      0.000000     -0.000000
      2.00922      8.83706      2.24497        -0.002355      0.000000     -0.000000
      6.18318      8.83706      6.73490        -0.002355      0.000000     -0.000000
      6.33868      2.94569      6.73490         0.002355      0.000000     -0.000000
      2.08698      5.89137      2.81123         0.000000      0.000000      0.001544
      2.08698      0.00000      1.67871         0.000000      0.000000     -0.001544
      6.26093      5.89137      6.16864         0.000000      0.000000     -0.001544
      6.26093      0.00000      7.30116         0.000000      0.000000      0.001544
      4.45199      2.58038      4.32485         0.002408     -0.000561     -0.000226
      8.06987      9.20237      4.32485        -0.002408      0.000561     -0.000226
      4.45199      3.31099      0.16509         0.002408      0.000561      0.000226
      8.06987      8.47175      0.16509        -0.002408     -0.000561      0.000226
      3.89591      9.20237      4.65502        -0.002408      0.000561      0.000226
      0.27804      2.58038      4.65502         0.002408     -0.000561      0.000226
      3.89591      8.47175      8.81478        -0.002408     -0.000561     -0.000226
      0.27804      3.31099      8.81478         0.002408      0.000561     -0.000226
      2.08698      5.89137      6.87405         0.000000      0.000000     -0.004968
      2.08698      0.00000      6.59574         0.000000      0.000000      0.004968
      6.26093      5.89137      2.10581         0.000000      0.000000      0.004968
      6.26093      0.00000      2.38412         0.000000      0.000000     -0.004968
      2.08698      5.89137      1.71074         0.000000      0.000000      0.000250
      2.08698      0.00000      2.77919         0.000000      0.000000     -0.000250
      6.26093      5.89137      7.26912         0.000000      0.000000     -0.000250
      6.26093      0.00000      6.20067         0.000000      0.000000      0.000250
      2.73669      4.92179      5.18972         0.001487      0.000501     -0.000533
      1.43726      6.86095      5.18972        -0.001487     -0.000501     -0.000533
      2.73669      0.96958      8.28007         0.001487     -0.000501      0.000533
      1.43726     10.81317      8.28007        -0.001487      0.000501      0.000533
      5.61121      6.86095      3.79014        -0.001487     -0.000501      0.000533
      6.91064      4.92179      3.79014         0.001487      0.000501      0.000533
      5.61121     10.81317      0.69979        -0.001487      0.000501     -0.000533
      6.91064      0.96958      0.69979         0.001487     -0.000501     -0.000533
      3.50580      4.43012      6.73195         0.000388      0.000098      0.000100
      0.66815      7.35263      6.73195        -0.000388     -0.000098      0.000100
      3.50580      1.46126      6.73785         0.000388     -0.000098     -0.000100
      0.66815     10.32149      6.73785        -0.000388      0.000098     -0.000100
      4.84211      7.35263      2.24792        -0.000388     -0.000098     -0.000100
      7.67975      4.43012      2.24792         0.000388      0.000098     -0.000100
      4.84211     10.32149      2.24202        -0.000388      0.000098      0.000100
      7.67975      1.46126      2.24202         0.000388     -0.000098      0.000100
      5.13263      3.28117      3.80513         0.003086     -0.002296     -0.000553
      7.38922      8.50158      3.80513        -0.003086      0.002296     -0.000553
      5.13263      2.61021      0.68480         0.003086      0.002296      0.000553
      7.38922      9.17254      0.68480        -0.003086     -0.002296      0.000553
      3.21527      8.50158      5.17473        -0.003086      0.002296      0.000553
      0.95868      3.28117      5.17473         0.003086     -0.002296      0.000553
      3.21527      9.17254      8.29507        -0.003086     -0.002296     -0.000553
      0.95868      2.61021      8.29507         0.003086      0.002296     -0.000553
      1.58035      6.61913      8.72570        -0.000510     -0.000817     -0.000459
      2.59360      5.16362      8.72570         0.000510      0.000817     -0.000459
      1.58035     11.05500      4.74409        -0.000510      0.000817      0.000459
      2.59360      0.72775      4.74409         0.000510     -0.000817      0.000459
      6.76755      5.16362      0.25416         0.000510      0.000817      0.000459
      5.75430      6.61913      0.25416        -0.000510     -0.000817      0.000459
      6.76755      0.72775      4.23577         0.000510     -0.000817     -0.000459
      5.75430     11.05500      4.23577        -0.000510      0.000817     -0.000459
      2.83833      5.00543      6.20841         0.000686      0.000418      0.003015
      1.33562      6.77732      6.20841        -0.000686     -0.000418      0.003015
      2.83833      0.88595      7.26139         0.000686     -0.000418     -0.003015
      1.33562     10.89680      7.26139        -0.000686      0.000418     -0.003015
[...]
      0.72418      9.65593      3.68993        -0.001600      0.000907      0.000408
      3.44977      3.76455      0.80000         0.001600      0.000907     -0.000408
      0.72418      8.01819      0.80000        -0.001600     -0.000907     -0.000408
      4.89813      9.65593      5.28993        -0.001600      0.000907     -0.000408
      7.62372      2.12682      5.28993         0.001600     -0.000907     -0.000408
      4.89813      8.01819      8.17986        -0.001600     -0.000907      0.000408
      7.62372      3.76455      8.17986         0.001600      0.000907      0.000408
      4.71309      2.27072      5.53057         0.001589      0.000349      0.000581
      7.80876      9.51202      5.53057        -0.001589     -0.000349      0.000581
      4.71309      3.62065      7.93922         0.001589     -0.000349     -0.000581
      7.80876      8.16210      7.93922        -0.001589      0.000349     -0.000581
      3.63481      9.51202      3.44929        -0.001589     -0.000349     -0.000581
      0.53914      2.27072      3.44929         0.001589      0.000349     -0.000581
      3.63481      8.16210      1.04064        -0.001589      0.000349      0.000581
      0.53914      3.62065      1.04064         0.001589     -0.000349      0.000581
    total drift:                               -0.000000      0.000000      0.000000

  FREE ENERGIE OF THE ION-ELECTRON SYSTEM (eV)
  free  energy   TOTEN  =      -590.32008067 eV

  energy  without entropy=     -590.32008042  energy(sigma->0) =     -590.32008054

 writing wavefunctions

 total charge

[...]

 magnetization (x)

# of ion       s       p       d       tot
    1        0.015   0.014   3.562   3.592
    2       -0.015  -0.014  -3.562  -3.592
    3        0.015   0.014   3.562   3.592
    4       -0.015  -0.014  -3.562  -3.592
    5        0.000   0.000   0.000   0.000
    6        0.000   0.000   0.000   0.000
    7        0.000   0.000   0.000   0.000
    8        0.000   0.000   0.000   0.000
    9        0.000   0.002   0.000   0.002
   10       -0.000  -0.002   0.000  -0.002
   11        0.000   0.002   0.000   0.002
   12       -0.000  -0.002   0.000  -0.002
   13        0.000   0.002   0.000   0.002
   14       -0.000  -0.002   0.000  -0.002
   15        0.000   0.002   0.000   0.002
   16       -0.000  -0.002   0.000  -0.002
   17        0.000   0.000   0.000   0.000
   18        0.000   0.000   0.000   0.000
   19        0.000   0.000   0.000   0.000
   20        0.000   0.000   0.000   0.000
   21        0.000   0.000   0.000   0.000
   22        0.000   0.000   0.000   0.000
   23        0.000   0.000   0.000   0.000
   24        0.000   0.000   0.000   0.000
   25       -0.000   0.000   0.000   0.000
   26        0.000  -0.000   0.000  -0.000
   27       -0.000   0.000   0.000   0.000
   28        0.000  -0.000   0.000  -0.000
   29       -0.000   0.000   0.000   0.000
   30        0.000  -0.000   0.000  -0.000
   31       -0.000   0.000   0.000   0.000
   32        0.000  -0.000   0.000  -0.000
   33        0.000  -0.000   0.000   0.000
   34       -0.000   0.000   0.000  -0.000
   35        0.000  -0.000   0.000   0.000
   36       -0.000   0.000   0.000  -0.000
   37        0.000  -0.000   0.000   0.000
   38       -0.000   0.000   0.000  -0.000
   39        0.000  -0.000   0.000   0.000
   40       -0.000   0.000   0.000  -0.000
   41        0.000   0.000   0.000   0.000
   42       -0.000  -0.000   0.000  -0.000
   43        0.000   0.000   0.000   0.000
   44       -0.000  -0.000   0.000  -0.000
   45        0.000   0.000   0.000   0.000
   46       -0.000  -0.000   0.000  -0.000
   47        0.000   0.000   0.000   0.000
   48       -0.000  -0.000   0.000  -0.000
   49        0.000  -0.000   0.000  -0.000
   50       -0.000   0.000   0.000   0.000
   51        0.000  -0.000   0.000  -0.000
   52       -0.000   0.000   0.000   0.000
   53        0.000  -0.000   0.000  -0.000
   54       -0.000   0.000   0.000   0.000
   55        0.000  -0.000   0.000  -0.000
   56       -0.000   0.000   0.000   0.000
   57        0.000   0.000   0.000   0.000
   58       -0.000  -0.000   0.000  -0.000
   59        0.000   0.000   0.000   0.000
   60       -0.000  -0.000   0.000  -0.000
[...]
   78       -0.005  -0.026   0.000  -0.031
   79        0.005   0.026   0.000   0.031
   80       -0.005  -0.026   0.000  -0.031
   81        0.005   0.026   0.000   0.031
   82       -0.005  -0.026   0.000  -0.031
   83        0.005   0.026   0.000   0.031
   84       -0.005  -0.026   0.000  -0.031
   85       -0.005  -0.026   0.000  -0.031
   86        0.005   0.026   0.000   0.031
   87       -0.005  -0.026   0.000  -0.031
   88        0.005   0.026   0.000   0.031
   89       -0.005  -0.026   0.000  -0.031
   90        0.005   0.026   0.000   0.031
   91       -0.005  -0.026   0.000  -0.031
   92        0.005   0.026   0.000   0.031
tot          0.000   0.000   0.000   0.000