 vasp.5.4.1 24Jun15 (build Aug 03 2015 13:31:17) complex

 executed on      LinuxIFC_2015xe date 2020.06.04  14:03:57

 INCAR:
 POTCAR:   PAW_PBE Co 06Sep2000
 POTCAR:   PAW_PBE O 08Apr2002
 POTCAR:   PAW_PBE C 08Apr2002
 POTCAR:   PAW_PBE H 15Jun2001
 POTCAR:   PAW_PBE N 08Apr2002

 POTCAR:   PAW_PBE Co 06Sep2000
   VRHFIN =Co: d8 s1

   TITEL  = PAW_PBE Co 06Sep2000
   POMASS =   58.933; ZVAL   =    9.000    mass and valenz
   ENMAX  =  267.969; ENMIN  =  200.977 eV
   QCUT   =   -4.438; QGAM   =    8.876    optimization parameters

   Description
     l     E      TYP  RCUT    TYP  RCUT
     2   .000     23  2.300
     2   .000     23  2.300
     0   .000     23  2.300
     0   .000     23  2.300
     1  -.200     23  2.300
     1   .000     23  2.300
     3   .000      7   .000

 POTCAR:   PAW_PBE O 08Apr2002
   VRHFIN =O: s2p4

   TITEL  = PAW_PBE O 08Apr2002
   POMASS =   16.000; ZVAL   =    6.000    mass and valenz
   ENMAX  =  400.000; ENMIN  =  300.000 eV
   QCUT   =   -5.520; QGAM   =   11.041    optimization parameters

[...]

 POTCAR:   PAW_PBE C 08Apr2002
   VRHFIN =C: s2p2

[...]

 POTCAR:   PAW_PBE H 15Jun2001
   VRHFIN =H: ultrasoft test

   TITEL  = PAW_PBE H 15Jun2001
   POMASS =    1.000; ZVAL   =    1.000    mass and valenz
   ENMAX  =  250.000; ENMIN  =  200.000 eV
   QCUT   =   -5.749; QGAM   =   11.498    optimization parameters

[...]

 POTCAR:   PAW_PBE N 08Apr2002
   VRHFIN =N: s2p3

   TITEL  = PAW_PBE N 08Apr2002
   POMASS =   14.001; ZVAL   =    5.000    mass and valenz
   ENMAX  =  400.000; ENMIN  =  300.000 eV
   QCUT   =   -5.562; QGAM   =   11.124    optimization parameters

   Description
     l     E      TYP  RCUT    TYP  RCUT
     0   .000     23  1.200
     0   .000     23  1.200
     1   .000     23  1.500
     1   .700     23  1.500
     2   .000      7  1.500

 PAW_PBE Co 06Sep2000                   :
 PAW_PBE O 08Apr2002                    :
 PAW_PBE C 08Apr2002                    :
 PAW_PBE H 15Jun2001                    :
 PAW_PBE N 08Apr2002                    :

 POSCAR: C3 H3 Co O6, H5 N2
  positions in direct lattice
  velocities in cartesian coordinates
 exchange correlation table for  LEXCH =        8
   RHO(1)=    0.500       N(1)  =     2000
   RHO(2)=  100.500       N(2)  =     4000

 ion  position               nearest neighbor table
   1  0.539  0.500  0.513-  21 2.10  10 2.10  13 2.11  27 2.12   5 2.12  19 2.12
   2  0.461  0.500  0.013-  22 2.10   9 2.10  14 2.11  28 2.12   6 2.12  20 2.12
   3  0.039  1.000  0.513-  23 2.10  12 2.10  15 2.11  25 2.12   7 2.12  17 2.12
   4  0.961  0.000  0.013-  24 2.10  11 2.10  16 2.11  26 2.12   8 2.12  18 2.12
   5  0.561  0.646  0.668-  29 1.28   1 2.12
   6  0.439  0.354  0.168-  30 1.28   2 2.12
   7  0.061  0.854  0.668-  31 1.28   3 2.12
   8  0.939  0.146  0.168-  32 1.28   4 2.12
   9  0.504  0.641  0.859-  29 1.27   2 2.10
  10  0.496  0.359  0.359-  30 1.27   1 2.10
  11  0.004  0.859  0.859-  31 1.27   4 2.10
  12  0.996  0.141  0.359-  32 1.27   3 2.10
  13  0.446  0.729  0.441-  33 1.27   1 2.11
  14  0.554  0.271  0.941-  34 1.27   2 2.11
  15  0.946  0.771  0.441-  35 1.27   3 2.11
  16  0.054  0.229  0.941-  36 1.27   4 2.11
  17  0.253  0.922  0.439-  33 1.28   3 2.12
  18  0.747  0.078  0.939-  34 1.28   4 2.12
  19  0.753  0.578  0.439-  35 1.28   1 2.12
  20  0.247  0.422  0.939-  36 1.28   2 2.12
  21  0.323  0.426  0.581-  37 1.27   1 2.10
  22  0.677  0.574  0.081-  38 1.27   2 2.10
  23  0.823  0.074  0.581-  39 1.27   3 2.10
  24  0.177  0.926  0.081-  40 1.27   4 2.10
  25  0.130  0.232  0.582-  37 1.28   3 2.12
  26  0.870  0.768  0.082-  38 1.28   4 2.12
  27  0.630  0.268  0.582-  39 1.28   1 2.12
  28  0.370  0.732  0.082-  40 1.28   2 2.12
  29  0.533  0.565  0.763-  41 1.10   9 1.27   5 1.28
  30  0.467  0.435  0.263-  42 1.10  10 1.27   6 1.28
  31  0.033  0.935  0.763-  43 1.10  11 1.27   7 1.28
  32  0.967  0.065  0.263-  44 1.10  12 1.27   8 1.28
  33  0.322  0.791  0.483-  45 1.10  13 1.27  17 1.28
  34  0.678  0.209  0.983-  46 1.10  14 1.27  18 1.28
  35  0.822  0.709  0.483-  47 1.10  15 1.27  19 1.28
  36  0.178  0.291  0.983-  48 1.10  16 1.27  20 1.28
  37  0.267  0.279  0.554-  49 1.10  21 1.27  25 1.28
  38  0.733  0.721  0.054-  50 1.10  22 1.27  26 1.28
  39  0.767  0.221  0.554-  51 1.10  23 1.27  27 1.28
  40  0.233  0.779  0.054-  52 1.10  24 1.27  28 1.28
  41  0.535  0.423  0.761-  29 1.10
  42  0.465  0.577  0.261-  30 1.10
  43  0.035  0.077  0.761-  31 1.10
  44  0.965  0.923  0.261-  32 1.10
  45  0.271  0.729  0.560-  33 1.10
  46  0.729  0.271  0.060-  34 1.10
  47  0.771  0.771  0.560-  35 1.10
  48  0.229  0.229  0.060-  36 1.10
  49  0.339  0.188  0.504-  37 1.10
  50  0.661  0.812  0.004-  38 1.10
  51  0.839  0.312  0.504-  39 1.10
  52  0.161  0.688  0.004-  40 1.10
  53  0.074  0.409  0.677-  77 1.05
  54  0.926  0.591  0.177-  78 1.05
  55  0.574  0.091  0.677-  79 1.05
  56  0.426  0.909  0.177-  80 1.05
  57  0.072  0.628  0.703-  77 1.05
  58  0.928  0.372  0.203-  78 1.05
  59  0.572  0.872  0.703-  79 1.05
  60  0.428  0.128  0.203-  80 1.05
[...]
  66  0.084  0.604  0.352-  74 1.03
  67  0.416  0.104  0.852-  75 1.03
  68  0.584  0.896  0.352-  76 1.03
  69  0.898  0.608  0.839-  73 1.03
  70  0.102  0.392  0.339-  74 1.03
  71  0.398  0.892  0.839-  75 1.03
  72  0.602  0.108  0.339-  76 1.03
  73  0.908  0.495  0.792-  69 1.03  65 1.03  77 1.45
  74  0.092  0.505  0.292-  70 1.03  66 1.03  78 1.45
  75  0.408  0.005  0.792-  71 1.03  67 1.03  79 1.45
  76  0.592  0.995  0.292-  72 1.03  68 1.03  80 1.45
  77  0.061  0.505  0.741-  53 1.05  61 1.05  57 1.05  73 1.45
  78  0.939  0.495  0.241-  54 1.05  62 1.05  58 1.05  74 1.45
  79  0.561  0.995  0.741-  55 1.05  63 1.05  59 1.05  75 1.45
  80  0.439  0.005  0.241-  56 1.05  64 1.05  60 1.05  76 1.45

  LATTYP: Found a simple orthorhombic cell.
 ALAT       =     7.7318276334
 B/A-ratio  =     1.1184685592
 C/A-ratio  =     1.4816055615

  Lattice vectors:

 A1 = (   0.0000000000,  -7.7318276334,   0.0000000000)
 A2 = (  -8.6478061128,   0.0000000000,   0.0000000000)
 A3 = (   0.0000000000,   0.0000000000, -11.4555188221)

Analysis of symmetry for initial positions (statically):
 Subroutine PRICEL returns:
 Original cell was already a primitive cell.

 Routine SETGRP: Setting up the symmetry group for a
 simple orthorhombic supercell.

 Subroutine GETGRP returns: Found  4 space group operations
 (whereof  1 operations were pure point group operations)
 out of a pool of  8 trial point group operations.

The static configuration has the point symmetry C_1 .
 The point group associated with its full space group is C_2v.

Analysis of symmetry for dynamics (positions and initial velocities):
 Subroutine PRICEL returns:
 Original cell was already a primitive cell.

 Routine SETGRP: Setting up the symmetry group for a
 simple orthorhombic supercell.

 Subroutine GETGRP returns: Found  4 space group operations
 (whereof  1 operations were pure point group operations)
 out of a pool of  8 trial point group operations.

The dynamic configuration has the point symmetry C_1 .
 The point group associated with its full space group is C_2v.

Analysis of magnetic symmetry:
 Subroutine PRICEL returns:
 Original cell was already a primitive cell.

 Subroutine MAGSYM returns: Found  4 space group operations
 (whereof  1 operations were pure point group operations)
 out of a pool of  4 trial space group operations
 (whereof  1 operations were pure point group operations)
 and found also     1 'primitive' translations

The magnetic configuration has the point symmetry C_1 .
 The point group associated with its full space group is C_2v.

 KPOINTS: Automatic mesh

Automatic generation of k-mesh.
Space group operators:
 irot       det(A)        alpha          n_x          n_y          n_z        tau_x        tau_y        tau_z
    1     1.000000     0.000000     1.000000     0.000000     0.000000     0.000000     0.000000     0.000000
    2     1.000000   180.000000     0.000000     0.000000     1.000000     0.000000    -0.000000    -0.500000
    3    -1.000000   179.999999     1.000000     0.000000     0.000000    -0.500000    -0.500000    -0.500000
    4    -1.000000   180.000000     0.000000     1.000000     0.000000    -0.500000    -0.500000     0.000000

 Subroutine IBZKPT returns following result:

 Found     18 irreducible k-points:

 Following reciprocal coordinates:
            Coordinates               Weight
  0.000000  0.000000  0.000000      1.000000
  0.200000  0.000000  0.000000      2.000000
  0.400000  0.000000  0.000000      2.000000
  0.000000  0.200000  0.000000      2.000000
  0.200000  0.200000  0.000000      4.000000
  0.400000  0.200000  0.000000      4.000000
  0.000000  0.400000  0.000000      2.000000
  0.200000  0.400000  0.000000      4.000000
  0.400000  0.400000  0.000000      4.000000
  0.000000  0.000000  0.333333      2.000000
  0.200000  0.000000  0.333333      4.000000
  0.400000  0.000000  0.333333      4.000000
  0.000000  0.200000  0.333333      4.000000
  0.200000  0.200000  0.333333      8.000000
  0.400000  0.200000  0.333333      8.000000
  0.000000  0.400000  0.333333      4.000000
  0.200000  0.400000  0.333333      8.000000
  0.400000  0.400000  0.333333      8.000000

 Following cartesian coordinates:
            Coordinates               Weight
  0.000000  0.000000  0.000000      1.000000
  0.023127  0.000000  0.000000      2.000000
  0.046255  0.000000  0.000000      2.000000
  0.000000  0.025867  0.000000      2.000000
  0.023127  0.025867  0.000000      4.000000
  0.046255  0.025867  0.000000      4.000000
  0.000000  0.051734  0.000000      2.000000
  0.023127  0.051734  0.000000      4.000000
  0.046255  0.051734  0.000000      4.000000
  0.000000  0.000000  0.029098      2.000000
  0.023127  0.000000  0.029098      4.000000
  0.046255  0.000000  0.029098      4.000000
  0.000000  0.025867  0.029098      4.000000
  0.023127  0.025867  0.029098      8.000000
  0.046255  0.025867  0.029098      8.000000
  0.000000  0.051734  0.029098      4.000000
  0.023127  0.051734  0.029098      8.000000
  0.046255  0.051734  0.029098      8.000000

 Subroutine IBZKPT_HF returns following result:

 Found     75 k-points in 1st BZ
 the following     75 k-points will be used (e.g. in the exchange kernel)
 Following reciprocal coordinates:   # in IRBZ
  0.000000  0.000000  0.000000    0.01333333   1 t-inv F
  0.200000  0.000000  0.000000    0.01333333   2 t-inv F
  0.400000  0.000000  0.000000    0.01333333   3 t-inv F
  0.000000  0.200000  0.000000    0.01333333   4 t-inv F
  0.200000  0.200000  0.000000    0.01333333   5 t-inv F
  0.400000  0.200000  0.000000    0.01333333   6 t-inv F
  0.000000  0.400000  0.000000    0.01333333   7 t-inv F
  0.200000  0.400000  0.000000    0.01333333   8 t-inv F
  0.400000  0.400000  0.000000    0.01333333   9 t-inv F
  0.000000  0.000000  0.333333    0.01333333  10 t-inv F
  0.200000  0.000000  0.333333    0.01333333  11 t-inv F
  0.400000  0.000000  0.333333    0.01333333  12 t-inv F
  0.000000  0.200000  0.333333    0.01333333  13 t-inv F
  0.200000  0.200000  0.333333    0.01333333  14 t-inv F
[...]
   0.628E+02 0.107E+03 -.907E+02   -.517E+02 -.147E+03 0.105E+03   -.111E+02 0.401E+02 -.141E+02   0.444E-02 -.387E-02 0.130E-03
   -.628E+02 -.107E+03 -.907E+02   0.517E+02 0.147E+03 0.105E+03   0.111E+02 -.401E+02 -.141E+02   -.444E-02 0.388E-02 0.133E-03
   0.966E+02 -.534E+02 -.908E+02   -.135E+03 0.448E+02 0.103E+03   0.388E+02 0.852E+01 -.124E+02   -.518E-02 -.319E-02 -.262E-03
   -.966E+02 0.534E+02 -.908E+02   0.135E+03 -.448E+02 0.103E+03   -.388E+02 -.852E+01 -.124E+02   0.518E-02 0.319E-02 -.254E-03
   0.966E+02 0.534E+02 -.908E+02   -.135E+03 -.448E+02 0.103E+03   0.388E+02 -.852E+01 -.124E+02   -.518E-02 0.319E-02 -.262E-03
   -.966E+02 -.534E+02 -.908E+02   0.135E+03 0.448E+02 0.103E+03   -.388E+02 0.852E+01 -.124E+02   0.518E-02 -.319E-02 -.255E-03
   -.163E+02 0.110E+03 -.193E+01   0.163E+02 -.118E+03 0.174E+01   0.438E-01 0.768E+01 0.188E+00   -.267E-03 -.382E-02 -.139E-03
   0.163E+02 -.110E+03 -.193E+01   -.163E+02 0.118E+03 0.174E+01   -.438E-01 -.768E+01 0.188E+00   0.267E-03 0.382E-02 -.143E-03
   -.163E+02 -.110E+03 -.193E+01   0.163E+02 0.118E+03 0.174E+01   0.438E-01 -.768E+01 0.188E+00   -.267E-03 0.382E-02 -.138E-03
   0.163E+02 0.110E+03 -.193E+01   -.163E+02 -.118E+03 0.174E+01   -.438E-01 0.768E+01 0.188E+00   0.269E-03 -.382E-02 -.143E-03
   0.445E+02 0.391E+02 -.923E+02   -.475E+02 -.425E+02 0.985E+02   0.299E+01 0.336E+01 -.614E+01   -.154E-02 -.150E-02 0.252E-02
   -.445E+02 -.391E+02 -.923E+02   0.475E+02 0.425E+02 0.985E+02   -.299E+01 -.336E+01 -.614E+01   0.154E-02 0.150E-02 0.253E-02
   0.445E+02 -.391E+02 -.923E+02   -.475E+02 0.425E+02 0.985E+02   0.299E+01 -.336E+01 -.614E+01   -.154E-02 0.150E-02 0.252E-02
   -.445E+02 0.391E+02 -.923E+02   0.475E+02 -.425E+02 0.985E+02   -.299E+01 0.336E+01 -.614E+01   0.154E-02 -.150E-02 0.253E-02
   -.604E+02 0.798E+02 0.455E+02   0.647E+02 -.845E+02 -.494E+02   -.438E+01 0.473E+01 0.393E+01   0.200E-02 -.200E-02 -.183E-02
   0.604E+02 -.798E+02 0.455E+02   -.647E+02 0.845E+02 -.494E+02   0.438E+01 -.473E+01 0.393E+01   -.200E-02 0.200E-02 -.183E-02
   -.604E+02 -.798E+02 0.455E+02   0.647E+02 0.845E+02 -.494E+02   -.438E+01 -.473E+01 0.393E+01   0.200E-02 0.200E-02 -.183E-02
   0.604E+02 0.798E+02 0.455E+02   -.647E+02 -.845E+02 -.494E+02   0.438E+01 0.473E+01 0.393E+01   -.200E-02 -.200E-02 -.183E-02
   -.333E+01 0.541E+02 0.583E-01   0.344E+01 -.600E+02 -.181E+00   -.103E+00 0.589E+01 0.122E+00   -.989E-04 -.795E-03 -.603E-04
   0.333E+01 -.541E+02 0.583E-01   -.344E+01 0.600E+02 -.181E+00   0.103E+00 -.589E+01 0.122E+00   0.988E-04 0.794E-03 -.612E-04
   -.333E+01 -.541E+02 0.583E-01   0.344E+01 0.600E+02 -.181E+00   -.103E+00 -.589E+01 0.122E+00   -.989E-04 0.794E-03 -.600E-04
   0.333E+01 0.541E+02 0.583E-01   -.344E+01 -.600E+02 -.181E+00   0.103E+00 0.589E+01 0.122E+00   0.991E-04 -.794E-03 -.612E-04
   0.211E+02 0.207E+02 -.448E+02   -.234E+02 -.232E+02 0.496E+02   0.233E+01 0.257E+01 -.476E+01   -.357E-03 -.341E-03 0.511E-03
   -.211E+02 -.207E+02 -.448E+02   0.234E+02 0.232E+02 0.496E+02   -.233E+01 -.257E+01 -.476E+01   0.357E-03 0.341E-03 0.513E-03
   0.211E+02 -.207E+02 -.448E+02   -.234E+02 0.232E+02 0.496E+02   0.233E+01 -.257E+01 -.476E+01   -.357E-03 0.341E-03 0.511E-03
   -.211E+02 0.207E+02 -.448E+02   0.234E+02 -.232E+02 0.496E+02   -.233E+01 0.257E+01 -.476E+01   0.357E-03 -.341E-03 0.513E-03
   -.317E+02 0.356E+02 0.236E+02   0.350E+02 -.394E+02 -.266E+02   -.332E+01 0.375E+01 0.305E+01   0.439E-03 -.426E-03 -.385E-03
   0.317E+02 -.356E+02 0.236E+02   -.350E+02 0.394E+02 -.266E+02   0.332E+01 -.375E+01 0.305E+01   -.439E-03 0.426E-03 -.383E-03
   -.317E+02 -.356E+02 0.236E+02   0.350E+02 0.394E+02 -.266E+02   -.332E+01 -.375E+01 0.305E+01   0.439E-03 0.426E-03 -.385E-03
   0.317E+02 0.356E+02 0.236E+02   -.350E+02 -.394E+02 -.266E+02   0.332E+01 0.375E+01 0.305E+01   -.439E-03 -.426E-03 -.383E-03
   0.265E+01 0.271E+02 0.315E+02   -.187E+01 -.320E+02 -.364E+02   -.783E+00 0.492E+01 0.486E+01   0.205E-03 -.574E-03 -.626E-03
   -.265E+01 -.271E+02 0.315E+02   0.187E+01 0.320E+02 -.364E+02   0.783E+00 -.492E+01 0.486E+01   -.205E-03 0.573E-03 -.626E-03
   0.265E+01 -.271E+02 0.315E+02   -.187E+01 0.320E+02 -.364E+02   -.783E+00 -.492E+01 0.486E+01   0.205E-03 0.574E-03 -.626E-03
   -.265E+01 0.271E+02 0.315E+02   0.187E+01 -.320E+02 -.364E+02   0.783E+00 0.492E+01 0.486E+01   -.205E-03 -.573E-03 -.626E-03
   -.117E+02 -.312E+02 0.260E+02   0.123E+02 0.374E+02 -.288E+02   -.604E+00 -.619E+01 0.283E+01   0.500E-03 0.592E-03 -.616E-03
   0.117E+02 0.312E+02 0.260E+02   -.123E+02 -.374E+02 -.288E+02   0.604E+00 0.619E+01 0.283E+01   -.500E-03 -.592E-03 -.617E-03
   -.117E+02 0.312E+02 0.260E+02   0.123E+02 -.374E+02 -.288E+02   -.604E+00 0.619E+01 0.283E+01   0.500E-03 -.592E-03 -.616E-03
   0.117E+02 -.312E+02 0.260E+02   -.123E+02 0.374E+02 -.288E+02   0.604E+00 -.619E+01 0.283E+01   -.500E-03 0.592E-03 -.617E-03
[...]
   0.137E+02 -.357E+02 -.326E+02   -.133E+02 0.412E+02 0.374E+02   -.372E+00 -.551E+01 -.476E+01   -.208E-03 0.773E-03 0.904E-03
   -.137E+02 0.357E+02 -.326E+02   0.133E+02 -.412E+02 0.374E+02   0.372E+00 0.551E+01 -.476E+01   0.208E-03 -.773E-03 0.902E-03
   0.197E+02 -.399E+02 -.306E+02   -.205E+02 0.461E+02 0.343E+02   0.802E+00 -.625E+01 -.368E+01   -.309E-03 0.738E-03 0.876E-03
   -.197E+02 0.399E+02 -.306E+02   0.205E+02 -.461E+02 0.343E+02   -.802E+00 0.625E+01 -.368E+01   0.309E-03 -.739E-03 0.874E-03
   0.197E+02 0.399E+02 -.306E+02   -.205E+02 -.461E+02 0.343E+02   0.802E+00 0.625E+01 -.368E+01   -.309E-03 -.738E-03 0.876E-03
   -.197E+02 -.399E+02 -.306E+02   0.205E+02 0.461E+02 0.343E+02   -.802E+00 -.625E+01 -.368E+01   0.309E-03 0.738E-03 0.874E-03
   0.131E+03 0.170E+02 0.386E+01   -.159E+03 -.215E+02 -.207E+02   0.276E+02 0.444E+01 0.169E+02   -.268E-02 -.391E-03 0.385E-02
   -.131E+03 -.170E+02 0.386E+01   0.159E+03 0.215E+02 -.207E+02   -.276E+02 -.444E+01 0.169E+02   0.268E-02 0.388E-03 0.384E-02
   0.131E+03 -.170E+02 0.386E+01   -.159E+03 0.215E+02 -.207E+02   0.276E+02 -.444E+01 0.169E+02   -.268E-02 0.391E-03 0.385E-02
   -.131E+03 0.170E+02 0.386E+01   0.159E+03 -.215E+02 -.207E+02   -.276E+02 0.444E+01 0.169E+02   0.268E-02 -.389E-03 0.384E-02
   -.517E+02 -.150E+01 0.438E+02   0.561E+02 0.172E+01 -.463E+02   -.444E+01 -.226E+00 0.249E+01   0.468E-02 0.158E-04 -.143E-02
   0.517E+02 0.150E+01 0.438E+02   -.561E+02 -.172E+01 -.463E+02   0.444E+01 0.226E+00 0.249E+01   -.468E-02 -.182E-04 -.143E-02
   -.517E+02 0.150E+01 0.438E+02   0.561E+02 -.172E+01 -.463E+02   -.444E+01 0.226E+00 0.249E+01   0.468E-02 -.160E-04 -.143E-02
   0.517E+02 -.150E+01 0.438E+02   -.561E+02 0.172E+01 -.463E+02   0.444E+01 -.226E+00 0.249E+01   -.468E-02 0.182E-04 -.143E-02
   -.198E-02 0.726E-03 -.873E+02   -.327E-12 0.682E-13 0.497E-12   0.231E-13 -.116E-13 0.873E+02   0.638E-05 0.576E-05 0.103E-01

 POSITION                                       TOTAL-FORCE (eV/Angst)
      4.65697      3.86621      5.87238         0.000818      0.000293      0.000723
      3.99083      3.86561      0.14462        -0.000818     -0.000293      0.000723
      0.33307      7.73153      5.87238         0.000818     -0.000293      0.000723
      8.31473      0.00030      0.14462        -0.000818      0.000293      0.000723
      4.85208      4.99806      7.65395        -0.002038      0.001303      0.000590
      3.79572      2.73377      1.92619         0.002038     -0.001303      0.000590
      0.52818      6.59968      7.65395        -0.002038     -0.001303      0.000590
      8.11963      1.13214      1.92619         0.002038      0.001303      0.000590
      4.35837      4.95369      9.83697         0.000451     -0.000185     -0.003371
      4.28944      2.77813      4.10921        -0.000451      0.000185     -0.003371
      0.03446      6.64405      9.83697         0.000451      0.000185     -0.003371
      8.61334      1.08778      4.10921        -0.000451     -0.000185     -0.003371
      3.85635      5.63567      5.05250        -0.003372      0.002683     -0.000692
      4.79145      2.09616     10.78026         0.003372     -0.002683     -0.000692
      8.18026      5.96207      5.05250        -0.003372     -0.002683     -0.000692
      0.46755      1.76976     10.78026         0.003372      0.002683     -0.000692
      2.18377      7.12559      5.03206         0.003772     -0.002712     -0.000043
      6.46404      0.60624     10.75982        -0.003772      0.002712     -0.000043
      6.50767      4.47215      5.03206         0.003772      0.002712     -0.000043
      2.14013      3.25967     10.75982        -0.003772     -0.002712     -0.000043
      2.78965      3.29014      6.65114        -0.006586      0.001334     -0.000397
      5.85816      4.44169      0.92338         0.006586     -0.001334     -0.000397
      7.11355      0.57578      6.65114        -0.006586     -0.001334     -0.000397
      1.53425      7.15605      0.92338         0.006586      0.001334     -0.000397
      1.12795      1.79448      6.66466         0.002052      0.002851      0.000303
      7.51986      5.93735      0.93690        -0.002052     -0.002851      0.000303
      5.45185      2.07143      6.66466         0.002052     -0.002851      0.000303
      3.19595      5.66040      0.93690        -0.002052      0.002851      0.000303
      4.61028      4.37150      8.73910        -0.000186     -0.002083      0.003504
      4.03753      3.36033      3.01135         0.000186      0.002083      0.003504
      0.28638      7.22624      8.73910        -0.000186      0.002083      0.003504
      8.36143      0.50559      3.01135         0.000186     -0.002083      0.003504
      2.78375      6.11571      5.52896         0.000708      0.002597     -0.002066
      5.86405      1.61612     11.25672        -0.000708     -0.002597     -0.002066
      7.10766      5.48203      5.52896         0.000708     -0.002597     -0.002066
      1.54015      2.24979     11.25672        -0.000708      0.002597     -0.002066
      2.31073      2.15817      6.34839        -0.001367     -0.001188      0.000371
      6.33708      5.57366      0.62063         0.001367      0.001188      0.000371
      6.63463      1.70775      6.34839        -0.001367      0.001188      0.000371
      2.01317      6.02408      0.62063         0.001367     -0.001188      0.000371
      4.62431      3.26984      8.71312        -0.000276      0.000544     -0.002163
      4.02350      4.46199      2.98536         0.000276     -0.000544     -0.002163
      0.30041      0.59607      8.71312        -0.000276     -0.000544     -0.002163
      8.34740      7.13575      2.98536         0.000276      0.000544     -0.002163
      2.34243      5.63716      6.41879        -0.001568     -0.000095      0.001075
      6.30537      2.09467      0.69103         0.001568      0.000095      0.001075
      6.66634      5.96058      6.41879        -0.001568      0.000095      0.001075
      1.98147      1.77124      0.69103         0.001568     -0.000095      0.001075
      2.93478      1.45073      5.77639        -0.001703     -0.002563     -0.001851
      5.71303      6.28110      0.04863         0.001703      0.002563     -0.001851
      7.25868      2.41518      5.77639        -0.001703      0.002563     -0.001851
      1.38913      5.31665      0.04863         0.001703     -0.002563     -0.001851
      0.63722      3.16580      7.75549        -0.002668      0.000257      0.000593
      8.01059      4.56602      2.02773         0.002668     -0.000257      0.000593
      4.96112      0.70011      7.75549        -0.002668     -0.000257      0.000593
      3.68668      7.03172      2.02773         0.002668      0.000257      0.000593
      0.61841      4.85930      8.05069        -0.002186     -0.000043      0.000657
      8.02939      2.87252      2.32293         0.002186      0.000043      0.000657
      4.94232      6.73844      8.05069        -0.002186      0.000043      0.000657
      3.70549      0.99339      2.32293         0.002186     -0.000043      0.000657
[...]
      0.72252      4.67084      4.03150         0.002263      0.000005      0.001738
      3.60138      0.80493      9.75926        -0.002263      0.000005      0.001738
      5.04643      6.92690      4.03150         0.002263     -0.000005      0.001738
      7.76352      4.70032      9.60945        -0.001493      0.001303      0.002340
      0.88429      3.03151      3.88169         0.001493     -0.001303      0.002340
      3.43961      6.89742      9.60945        -0.001493     -0.001303      0.002340
      5.20819      0.83441      3.88169         0.001493      0.001303      0.002340
      7.84992      3.82613      9.07407        -0.000454      0.000325     -0.000684
      0.79788      3.90570      3.34631         0.000454     -0.000325     -0.000684
      3.52602      0.03979      9.07407        -0.000454     -0.000325     -0.000684
      5.12179      7.69204      3.34631         0.000454      0.000325     -0.000684
      0.52542      3.90702      8.48628         0.001176      0.001564     -0.001260
      8.12238      3.82481      2.75852        -0.001176     -0.001564     -0.001260
      4.84933      7.69072      8.48628         0.001176     -0.001564     -0.001260
      3.79848      0.04110      2.75852        -0.001176      0.001564     -0.001260
    total drift:                               -0.001973      0.000732      0.012305

  FREE ENERGIE OF THE ION-ELECTRON SYSTEM (eV)
  free  energy   TOTEN  =      -488.66540402 eV

  energy  without entropy=     -488.66540402  energy(sigma->0) =     -488.66540402

 total charge

[...]

 magnetization (x)

# of ion     s       p       d       tot
  1       -0.010  -0.007  -2.670  -2.687
  2        0.010   0.007   2.670   2.687
  3        0.010   0.007   2.670   2.687
  4       -0.010  -0.007  -2.670  -2.687
  5       -0.004  -0.027   0.000  -0.031
  6        0.004   0.027   0.000   0.031
  7        0.004   0.027   0.000   0.031
  8       -0.004  -0.027   0.000  -0.031
  9        0.004   0.028   0.000   0.032
 10       -0.004  -0.028   0.000  -0.032
 11       -0.004  -0.028   0.000  -0.032
 12        0.004   0.028   0.000   0.032
 13       -0.004  -0.030   0.000  -0.034
 14        0.004   0.030   0.000   0.034
 15        0.004   0.030   0.000   0.034
 16       -0.004  -0.030   0.000  -0.034
 17        0.004   0.027   0.000   0.030
 18       -0.004  -0.027   0.000  -0.030
 19       -0.004  -0.027   0.000  -0.030
 20        0.004   0.027   0.000   0.030
 21       -0.004  -0.032   0.000  -0.035
 22        0.004   0.032   0.000   0.035
 23        0.004   0.031   0.000   0.035
 24       -0.004  -0.031   0.000  -0.035
 25        0.004   0.026   0.000   0.030
 26       -0.004  -0.026   0.000  -0.030
 27       -0.004  -0.026   0.000  -0.030
 28        0.004   0.026   0.000   0.030
 29        0.000  -0.001   0.000  -0.001
 30       -0.000   0.001   0.000   0.001
 31       -0.000   0.001   0.000   0.001
 32        0.000  -0.001   0.000  -0.001
 33       -0.000   0.000   0.000   0.000
 34        0.000  -0.000   0.000  -0.000
 35        0.000  -0.000   0.000  -0.000
 36       -0.000   0.000   0.000   0.000
 37        0.000   0.000   0.000   0.001
 38       -0.000  -0.000   0.000  -0.001
 39       -0.000  -0.000   0.000  -0.001
 40        0.000   0.000   0.000   0.001
 41        0.000  -0.000   0.000   0.000
 42       -0.000   0.000   0.000  -0.000
 43       -0.000   0.000   0.000  -0.000
 44        0.000  -0.000   0.000   0.000
 45       -0.000  -0.000   0.000  -0.000
 46        0.000   0.000   0.000   0.000
 47        0.000   0.000   0.000   0.000
 48       -0.000  -0.000   0.000  -0.000
 49       -0.000   0.000   0.000  -0.000
 50        0.000  -0.000   0.000   0.000
 51        0.000  -0.000   0.000   0.000
 52       -0.000   0.000   0.000  -0.000
 53        0.000   0.000   0.000   0.000
 54       -0.000  -0.000   0.000  -0.000
 55       -0.000  -0.000   0.000  -0.000
 56        0.000   0.000   0.000   0.000
 57        0.000   0.000   0.000   0.000
 58       -0.000  -0.000   0.000  -0.000
 59       -0.000  -0.000   0.000  -0.000
 60        0.000   0.000   0.000   0.000
[...]
 66       -0.000   0.000   0.000   0.000
 67       -0.000   0.000   0.000   0.000
 68        0.000  -0.000   0.000  -0.000
 69        0.000  -0.000   0.000   0.000
 70       -0.000   0.000   0.000  -0.000
 71       -0.000   0.000   0.000  -0.000
 72        0.000  -0.000   0.000   0.000
 73       -0.000  -0.000   0.000  -0.000
 74        0.000   0.000   0.000   0.000
 75        0.000   0.000   0.000   0.000
 76       -0.000  -0.000   0.000  -0.000
 77        0.000   0.001   0.000   0.001
 78       -0.000  -0.001   0.000  -0.001
 79       -0.000  -0.001   0.000  -0.001
 80        0.000   0.001   0.000   0.001
tot        0.000  -0.000   0.000  -0.000