 vasp.5.4.1 24Jun15 (build Aug 03 2015 13:31:17) complex

 executed on      LinuxIFC_2015xe date 2021.07.26  23:24:46

 INCAR:
 POTCAR:    PAW_PBE Mg 13Apr2007
 POTCAR:   PAW_PBE O 08Apr2002
 POTCAR:   PAW_PBE C 08Apr2002
 POTCAR:   PAW_PBE H 15Jun2001
 POTCAR:   PAW_PBE N 08Apr2002

 POTCAR:    PAW_PBE Mg 13Apr2007
   VRHFIN =Mg: s2p0

   TITEL  = PAW_PBE Mg 13Apr2007
   POMASS =   24.305; ZVAL   =    2.000    mass and valenz
   ENMAX  =  126.143; ENMIN  =   94.607 eV

 POTCAR:   PAW_PBE O 08Apr2002
   VRHFIN =O: s2p4

   TITEL  = PAW_PBE O 08Apr2002
   POMASS =   16.000; ZVAL   =    6.000    mass and valenz
   ENMAX  =  400.000; ENMIN  =  300.000 eV
   QCUT   =   -5.520; QGAM   =   11.041    optimization parameters

   Description
     l     E      TYP  RCUT    TYP  RCUT
     0   .000     23  1.200
     0  -.700     23  1.200
     1   .000     23  1.520
     1   .600     23  1.520
     2   .000      7  1.500

 POTCAR:   PAW_PBE C 08Apr2002
   VRHFIN =C: s2p2

[...]

 POTCAR:   PAW_PBE H 15Jun2001
   VRHFIN =H: ultrasoft test

   TITEL  = PAW_PBE H 15Jun2001
   POMASS =    1.000; ZVAL   =    1.000    mass and valenz
   ENMAX  =  250.000; ENMIN  =  200.000 eV
   QCUT   =   -5.749; QGAM   =   11.498    optimization parameters

[...]

 POTCAR:   PAW_PBE N 08Apr2002
   VRHFIN =N: s2p3

   TITEL  = PAW_PBE N 08Apr2002
   POMASS =   14.001; ZVAL   =    5.000    mass and valenz
   ENMAX  =  400.000; ENMIN  =  300.000 eV
   QCUT   =   -5.562; QGAM   =   11.124    optimization parameters

   Description
     l     E      TYP  RCUT    TYP  RCUT
     0   .000     23  1.200
     0   .000     23  1.200
     1   .000     23  1.500
     1   .700     23  1.500
     2   .000      7  1.500

  PAW_PBE Mg 13Apr2007                  :
 PAW_PBE O 08Apr2002                    :
 PAW_PBE C 08Apr2002                    :
 PAW_PBE H 15Jun2001                    :
 PAW_PBE N 08Apr2002                    :

 POSCAR: C3 H3 Co O6, H5 N2
  positions in direct lattice
  velocities in cartesian coordinates
 exchange correlation table for  LEXCH =        8
   RHO(1)=    0.500       N(1)  =     2000
   RHO(2)=  100.500       N(2)  =     4000

 ion  position               nearest neighbor table
   1  0.997  0.963  0.500-  26 2.08  12 2.08  13 2.09  20 2.11  21 2.12   5 2.14
   2  0.003  0.037  0.000-  25 2.08  11 2.08  14 2.09  19 2.11  22 2.12   6 2.14
   3  0.497  0.537  0.000-  28 2.08  10 2.08  15 2.09  18 2.11  23 2.12   7 2.14
   4  0.503  0.463  0.500-  27 2.08   9 2.08  16 2.09  17 2.11  24 2.12   8 2.14
   5  0.096  0.173  0.440-  29 1.28   1 2.14
   6  0.904  0.827  0.940-  30 1.28   2 2.14
   7  0.596  0.327  0.940-  31 1.28   3 2.14
   8  0.404  0.673  0.440-  32 1.28   4 2.14
   9  0.297  0.348  0.439-  29 1.26   4 2.08
  10  0.703  0.652  0.939-  30 1.26   3 2.08
  11  0.797  0.152  0.939-  31 1.26   2 2.08
  12  0.203  0.848  0.439-  32 1.26   1 2.08
  13  0.788  0.072  0.564-  33 1.26   1 2.09
  14  0.212  0.928  0.064-  34 1.26   2 2.09
  15  0.288  0.428  0.064-  35 1.26   3 2.09
  16  0.712  0.572  0.564-  36 1.26   4 2.09
  17  0.596  0.256  0.565-  33 1.28   4 2.11
  18  0.404  0.744  0.065-  34 1.28   3 2.11
  19  0.096  0.244  0.065-  35 1.28   2 2.11
  20  0.904  0.756  0.565-  36 1.28   1 2.11
  21  0.874  0.946  0.341-  37 1.28   1 2.12
  22  0.126  0.054  0.841-  38 1.28   2 2.12
  23  0.374  0.554  0.841-  39 1.28   3 2.12
  24  0.626  0.446  0.341-  40 1.28   4 2.12
  25  0.881  0.002  0.154-  37 1.26   2 2.08
  26  0.119  0.998  0.654-  38 1.26   1 2.08
  27  0.381  0.498  0.654-  39 1.26   4 2.08
  28  0.619  0.502  0.154-  40 1.26   3 2.08
  29  0.234  0.226  0.474-  49 1.11   9 1.26   5 1.28
  30  0.766  0.774  0.974-  50 1.11  10 1.26   6 1.28
  31  0.734  0.274  0.974-  51 1.11  11 1.26   7 1.28
  32  0.266  0.726  0.474-  52 1.11  12 1.26   8 1.28
  33  0.717  0.185  0.521-  53 1.11  13 1.26  17 1.28
  34  0.283  0.815  0.021-  54 1.11  14 1.26  18 1.28
  35  0.217  0.315  0.021-  55 1.11  15 1.26  19 1.28
  36  0.783  0.685  0.521-  56 1.11  16 1.26  20 1.28
  37  0.949  0.988  0.251-  57 1.11  25 1.26  21 1.28
  38  0.051  0.012  0.751-  58 1.11  26 1.26  22 1.28
  39  0.449  0.512  0.751-  59 1.11  27 1.26  23 1.28
  40  0.551  0.488  0.251-  60 1.11  28 1.26  24 1.28
  41  0.046  0.524  0.285-  65 1.09  61 1.10  93 1.49  45 1.51
  42  0.954  0.476  0.785-  66 1.09  62 1.10  94 1.49  46 1.51
  43  0.546  0.976  0.785-  67 1.09  63 1.10  95 1.49  47 1.51
  44  0.454  0.024  0.285-  68 1.09  64 1.10  96 1.49  48 1.51
  45  0.999  0.629  0.188-  73 1.09  77 1.09  69 1.10  41 1.51
  46  0.001  0.371  0.688-  74 1.09  78 1.09  70 1.10  42 1.51
  47  0.499  0.871  0.688-  75 1.09  79 1.09  71 1.10  43 1.51
  48  0.501  0.129  0.188-  76 1.09  80 1.09  72 1.10  44 1.51
  49  0.302  0.158  0.538-  29 1.11
  50  0.698  0.842  0.038-  30 1.11
  51  0.802  0.342  0.038-  31 1.11
  52  0.198  0.658  0.538-  32 1.11
  53  0.762  0.228  0.437-  33 1.11
  54  0.238  0.772  0.937-  34 1.11
  55  0.262  0.272  0.937-  35 1.11
  56  0.738  0.728  0.437-  36 1.11
  57  0.082  0.014  0.258-  37 1.11
  58  0.918  0.986  0.758-  38 1.11
  59  0.582  0.486  0.758-  39 1.11
  60  0.418  0.514  0.258-  40 1.11
[...]
  82  0.159  0.618  0.779-  94 1.04
  83  0.341  0.118  0.779-  95 1.04
  84  0.659  0.882  0.279-  96 1.04
  85  0.012  0.298  0.337-  93 1.06
  86  0.988  0.702  0.837-  94 1.06
  87  0.512  0.202  0.837-  95 1.06
  88  0.488  0.798  0.337-  96 1.06
  89  0.003  0.323  0.194-  93 1.05
  90  0.997  0.677  0.694-  94 1.05
  91  0.503  0.177  0.694-  95 1.05
  92  0.497  0.823  0.194-  96 1.05
  93  0.969  0.371  0.272-  81 1.04  89 1.05  85 1.06  41 1.49
  94  0.031  0.629  0.772-  82 1.04  90 1.05  86 1.06  42 1.49
  95  0.469  0.129  0.772-  83 1.04  91 1.05  87 1.06  43 1.49
  96  0.531  0.871  0.272-  84 1.04  92 1.05  88 1.06  44 1.49

  LATTYP: Found a simple orthorhombic cell.
 ALAT       =     8.1247303458
 B/A-ratio  =     1.0837399018
 C/A-ratio  =     1.4433832595

  Lattice vectors:

 A1 = (   8.1247303458,   0.0000000000,   0.0000000000)
 A2 = (   0.0000000000,   8.8050944674,   0.0000000000)
 A3 = (   0.0000000000,   0.0000000000,  11.7270997692)

Analysis of symmetry for initial positions (statically):
 Subroutine PRICEL returns:
 Original cell was already a primitive cell.

 Routine SETGRP: Setting up the symmetry group for a
 simple orthorhombic supercell.

 Subroutine GETGRP returns: Found  4 space group operations
 (whereof  1 operations were pure point group operations)
 out of a pool of  8 trial point group operations.

The static configuration has the point symmetry C_1 .
 The point group associated with its full space group is C_2v.

Analysis of symmetry for dynamics (positions and initial velocities):
 Subroutine PRICEL returns:
 Original cell was already a primitive cell.

 Routine SETGRP: Setting up the symmetry group for a
 simple orthorhombic supercell.

 Subroutine GETGRP returns: Found  4 space group operations
 (whereof  1 operations were pure point group operations)
 out of a pool of  8 trial point group operations.

The dynamic configuration has the point symmetry C_1 .
 The point group associated with its full space group is C_2v.

Analysis of magnetic symmetry:
 Subroutine PRICEL returns:
 Original cell was already a primitive cell.

 Subroutine MAGSYM returns: Found  4 space group operations
 (whereof  1 operations were pure point group operations)
 out of a pool of  4 trial space group operations
 (whereof  1 operations were pure point group operations)
 and found also     1 'primitive' translations

The magnetic configuration has the point symmetry C_1 .
 The point group associated with its full space group is C_2v.

 KPOINTS: Automatic mesh

Automatic generation of k-mesh.
Space group operators:
 irot       det(A)        alpha          n_x          n_y          n_z        tau_x        tau_y        tau_z
    1     1.000000     0.000000     1.000000     0.000000     0.000000     0.000000     0.000000     0.000000
    2     1.000000   180.000000     0.000000     0.000000     1.000000     0.000000     0.000000     0.500000
    3    -1.000000   179.999999     0.000000     1.000000     0.000000     0.500000     0.500000     0.500000
    4    -1.000000   180.000000     1.000000     0.000000     0.000000     0.500000     0.500000     0.000000

 Subroutine IBZKPT returns following result:

 Found      8 irreducible k-points:

 Following reciprocal coordinates:
            Coordinates               Weight
  0.125000  0.125000  0.125000      8.000000
  0.375000  0.125000  0.125000      8.000000
  0.125000  0.375000  0.125000      8.000000
  0.375000  0.375000  0.125000      8.000000
  0.125000  0.125000  0.375000      8.000000
  0.375000  0.125000  0.375000      8.000000
  0.125000  0.375000  0.375000      8.000000
  0.375000  0.375000  0.375000      8.000000

 Following cartesian coordinates:
            Coordinates               Weight
  0.015385  0.014196  0.010659      8.000000
  0.046155  0.014196  0.010659      8.000000
  0.015385  0.042589  0.010659      8.000000
  0.046155  0.042589  0.010659      8.000000
  0.015385  0.014196  0.031977      8.000000
  0.046155  0.014196  0.031977      8.000000
  0.015385  0.042589  0.031977      8.000000
  0.046155  0.042589  0.031977      8.000000

 Subroutine IBZKPT_HF returns following result:

 Found     64 k-points in 1st BZ
 the following     64 k-points will be used (e.g. in the exchange kernel)
 Following reciprocal coordinates:   # in IRBZ
  0.125000  0.125000  0.125000    0.01562500   1 t-inv F
  0.375000  0.125000  0.125000    0.01562500   2 t-inv F
  0.125000  0.375000  0.125000    0.01562500   3 t-inv F
  0.375000  0.375000  0.125000    0.01562500   4 t-inv F
  0.125000  0.125000  0.375000    0.01562500   5 t-inv F
  0.375000  0.125000  0.375000    0.01562500   6 t-inv F
  0.125000  0.375000  0.375000    0.01562500   7 t-inv F
  0.375000  0.375000  0.375000    0.01562500   8 t-inv F
 -0.125000 -0.125000  0.125000    0.01562500   1 t-inv F
  0.125000 -0.125000  0.125000    0.01562500   1 t-inv F
 -0.125000  0.125000  0.125000    0.01562500   1 t-inv F
 -0.375000 -0.125000  0.125000    0.01562500   2 t-inv F
  0.375000 -0.125000  0.125000    0.01562500   2 t-inv F
 -0.375000  0.125000  0.125000    0.01562500   2 t-inv F
 -0.125000 -0.375000  0.125000    0.01562500   3 t-inv F
  0.125000 -0.375000  0.125000    0.01562500   3 t-inv F
 -0.125000  0.375000  0.125000    0.01562500   3 t-inv F
 -0.375000 -0.375000  0.125000    0.01562500   4 t-inv F
  0.375000 -0.375000  0.125000    0.01562500   4 t-inv F
 -0.375000  0.375000  0.125000    0.01562500   4 t-inv F
 -0.125000 -0.125000  0.375000    0.01562500   5 t-inv F
  0.125000 -0.125000  0.375000    0.01562500   5 t-inv F
 -0.125000  0.125000  0.375000    0.01562500   5 t-inv F
 -0.375000 -0.125000  0.375000    0.01562500   6 t-inv F
  0.375000 -0.125000  0.375000    0.01562500   6 t-inv F
 -0.375000  0.125000  0.375000    0.01562500   6 t-inv F
 -0.125000 -0.375000  0.375000    0.01562500   7 t-inv F
  0.125000 -0.375000  0.375000    0.01562500   7 t-inv F
 -0.125000  0.375000  0.375000    0.01562500   7 t-inv F
[...]
   0.884E+02 -.638E+02 -.122E+03   -.111E+03 0.767E+02 0.155E+03   0.229E+02 -.129E+02 -.325E+02   0.327E-03 -.195E-03 -.387E-04
   -.884E+02 0.638E+02 -.122E+03   0.111E+03 -.767E+02 0.155E+03   -.229E+02 0.129E+02 -.325E+02   -.327E-03 0.195E-03 -.392E-04
   0.915E+02 -.211E+02 0.127E+03   -.115E+03 0.242E+02 -.163E+03   0.240E+02 -.313E+01 0.362E+02   0.242E-03 0.758E-04 0.687E-04
   -.915E+02 0.211E+02 0.127E+03   0.115E+03 -.242E+02 -.163E+03   -.240E+02 0.313E+01 0.362E+02   -.242E-03 -.758E-04 0.693E-04
   0.915E+02 0.211E+02 0.127E+03   -.115E+03 -.242E+02 -.163E+03   0.240E+02 0.313E+01 0.362E+02   0.242E-03 -.758E-04 0.693E-04
   -.915E+02 -.211E+02 0.127E+03   0.115E+03 0.242E+02 -.163E+03   -.240E+02 -.313E+01 0.362E+02   -.242E-03 0.758E-04 0.687E-04
   -.628E+02 0.627E+02 -.801E+02   0.664E+02 -.663E+02 0.850E+02   -.358E+01 0.362E+01 -.483E+01   0.250E-03 -.190E-04 0.291E-03
   0.628E+02 -.627E+02 -.801E+02   -.664E+02 0.663E+02 0.850E+02   0.358E+01 -.362E+01 -.483E+01   -.250E-03 0.190E-04 0.291E-03
   -.628E+02 -.627E+02 -.801E+02   0.664E+02 0.663E+02 0.850E+02   -.358E+01 -.362E+01 -.483E+01   0.250E-03 0.189E-04 0.291E-03
   0.628E+02 0.627E+02 -.801E+02   -.664E+02 -.663E+02 0.850E+02   0.358E+01 0.362E+01 -.483E+01   -.250E-03 -.189E-04 0.291E-03
   -.319E+02 -.404E+02 0.107E+03   0.343E+02 0.425E+02 -.113E+03   -.240E+01 -.213E+01 0.565E+01   0.203E-03 0.202E-03 -.472E-03
   0.319E+02 0.404E+02 0.107E+03   -.343E+02 -.425E+02 -.113E+03   0.240E+01 0.213E+01 0.565E+01   -.203E-03 -.202E-03 -.472E-03
   -.319E+02 0.404E+02 0.107E+03   0.343E+02 -.425E+02 -.113E+03   -.240E+01 0.213E+01 0.565E+01   0.203E-03 -.202E-03 -.472E-03
   0.319E+02 -.404E+02 0.107E+03   -.343E+02 0.425E+02 -.113E+03   0.240E+01 -.213E+01 0.565E+01   -.203E-03 0.202E-03 -.472E-03
   -.111E+03 -.198E+02 -.108E+02   0.118E+03 0.211E+02 0.113E+02   -.668E+01 -.133E+01 -.477E+00   0.163E-04 0.393E-04 0.276E-03
   0.111E+03 0.198E+02 -.108E+02   -.118E+03 -.211E+02 0.113E+02   0.668E+01 0.133E+01 -.477E+00   -.163E-04 -.393E-04 0.277E-03
   -.111E+03 0.198E+02 -.108E+02   0.118E+03 -.211E+02 0.113E+02   -.668E+01 0.133E+01 -.477E+00   0.163E-04 -.393E-04 0.277E-03
   0.111E+03 -.198E+02 -.108E+02   -.118E+03 0.211E+02 0.113E+02   0.668E+01 -.133E+01 -.477E+00   -.163E-04 0.393E-04 0.276E-03
   -.328E+02 -.478E+02 -.401E+02   0.362E+02 0.535E+02 0.406E+02   -.340E+01 -.572E+01 -.473E+00   -.215E-04 -.279E-03 0.246E-03
   0.328E+02 0.478E+02 -.401E+02   -.362E+02 -.535E+02 0.406E+02   0.340E+01 0.572E+01 -.473E+00   0.215E-04 0.279E-03 0.247E-03
   -.328E+02 0.478E+02 -.401E+02   0.362E+02 -.535E+02 0.406E+02   -.340E+01 0.572E+01 -.473E+00   -.214E-04 0.279E-03 0.247E-03
   0.328E+02 -.478E+02 -.401E+02   -.362E+02 0.535E+02 0.406E+02   0.340E+01 -.572E+01 -.473E+00   0.214E-04 -.279E-03 0.246E-03
   0.878E+01 -.365E+02 0.349E+02   -.932E+01 0.374E+02 -.361E+02   0.548E+00 -.930E+00 0.117E+01   -.379E-03 0.360E-03 -.278E-03
   -.878E+01 0.365E+02 0.349E+02   0.932E+01 -.374E+02 -.361E+02   -.548E+00 0.930E+00 0.117E+01   0.379E-03 -.360E-03 -.278E-03
   0.878E+01 0.365E+02 0.349E+02   -.932E+01 -.374E+02 -.361E+02   0.548E+00 0.930E+00 0.117E+01   -.379E-03 -.360E-03 -.278E-03
   -.878E+01 -.365E+02 0.349E+02   0.932E+01 0.374E+02 -.361E+02   -.548E+00 -.930E+00 0.117E+01   0.379E-03 0.360E-03 -.278E-03
   -.286E+02 0.289E+02 -.336E+02   0.314E+02 -.320E+02 0.375E+02   -.282E+01 0.315E+01 -.389E+01   -.898E-04 0.824E-04 0.243E-04
   0.286E+02 -.289E+02 -.336E+02   -.314E+02 0.320E+02 0.375E+02   0.282E+01 -.315E+01 -.389E+01   0.898E-04 -.824E-04 0.243E-04
   -.286E+02 -.289E+02 -.336E+02   0.314E+02 0.320E+02 0.375E+02   -.282E+01 -.315E+01 -.389E+01   -.898E-04 -.824E-04 0.243E-04
   0.286E+02 0.289E+02 -.336E+02   -.314E+02 -.320E+02 0.375E+02   0.282E+01 0.315E+01 -.389E+01   0.898E-04 0.824E-04 0.243E-04
   -.150E+02 -.165E+02 0.457E+02   0.168E+02 0.184E+02 -.507E+02   -.181E+01 -.190E+01 0.500E+01   -.685E-05 -.272E-04 -.329E-04
   0.150E+02 0.165E+02 0.457E+02   -.168E+02 -.184E+02 -.507E+02   0.181E+01 0.190E+01 0.500E+01   0.685E-05 0.272E-04 -.329E-04
   -.150E+02 0.165E+02 0.457E+02   0.168E+02 -.184E+02 -.507E+02   -.181E+01 0.190E+01 0.500E+01   -.687E-05 0.272E-04 -.329E-04
   0.150E+02 -.165E+02 0.457E+02   -.168E+02 0.184E+02 -.507E+02   0.181E+01 -.190E+01 0.500E+01   0.686E-05 -.272E-04 -.329E-04
   -.523E+02 -.101E+02 -.164E+01   0.578E+02 0.113E+02 0.204E+01   -.557E+01 -.117E+01 -.392E+00   -.222E-03 -.290E-04 0.397E-04
   0.523E+02 0.101E+02 -.164E+01   -.578E+02 -.113E+02 0.204E+01   0.557E+01 0.117E+01 -.392E+00   0.222E-03 0.290E-04 0.398E-04
   -.523E+02 0.101E+02 -.164E+01   0.578E+02 -.113E+02 0.204E+01   -.557E+01 0.117E+01 -.392E+00   -.222E-03 0.290E-04 0.398E-04
   0.523E+02 -.101E+02 -.164E+01   -.578E+02 0.113E+02 0.204E+01   0.557E+01 -.117E+01 -.392E+00   0.222E-03 -.290E-04 0.397E-04
[...]
   0.485E+02 -.494E+01 -.320E+01   -.555E+02 0.422E+01 0.377E+01   0.703E+01 0.712E+00 -.565E+00   -.656E-04 0.685E-04 -.314E-04
   -.485E+02 0.494E+01 -.320E+01   0.555E+02 -.422E+01 0.377E+01   -.703E+01 -.712E+00 -.565E+00   0.656E-04 -.685E-04 -.315E-04
   -.683E+01 0.250E+02 -.291E+02   0.908E+01 -.290E+02 0.339E+02   -.225E+01 0.405E+01 -.477E+01   -.792E-04 -.105E-03 -.832E-04
   0.683E+01 -.250E+02 -.291E+02   -.908E+01 0.290E+02 0.339E+02   0.225E+01 -.405E+01 -.477E+01   0.792E-04 0.105E-03 -.831E-04
   -.683E+01 -.250E+02 -.291E+02   0.908E+01 0.290E+02 0.339E+02   -.225E+01 -.405E+01 -.477E+01   -.792E-04 0.105E-03 -.831E-04
   0.683E+01 0.250E+02 -.291E+02   -.908E+01 -.290E+02 0.339E+02   0.225E+01 0.405E+01 -.477E+01   0.792E-04 -.105E-03 -.832E-04
   -.576E+01 0.208E+02 0.384E+02   0.766E+01 -.235E+02 -.444E+02   -.189E+01 0.274E+01 0.597E+01   -.111E-03 -.103E-03 0.637E-04
   0.576E+01 -.208E+02 0.384E+02   -.766E+01 0.235E+02 -.444E+02   0.189E+01 -.274E+01 0.597E+01   0.111E-03 0.103E-03 0.638E-04
   -.576E+01 -.208E+02 0.384E+02   0.766E+01 0.235E+02 -.444E+02   -.189E+01 -.274E+01 0.597E+01   -.111E-03 0.103E-03 0.638E-04
   0.576E+01 0.208E+02 0.384E+02   -.766E+01 -.235E+02 -.444E+02   0.189E+01 0.274E+01 0.597E+01   0.111E-03 -.103E-03 0.637E-04
   0.319E+02 0.451E+02 -.196E+01   -.312E+02 -.457E+02 0.203E+01   -.641E+00 0.642E+00 -.713E-01   -.509E-03 -.709E-03 -.194E-03
   -.319E+02 -.451E+02 -.196E+01   0.312E+02 0.457E+02 0.203E+01   0.641E+00 -.642E+00 -.713E-01   0.509E-03 0.709E-03 -.194E-03
   0.319E+02 -.451E+02 -.196E+01   -.312E+02 0.457E+02 0.203E+01   -.641E+00 -.642E+00 -.713E-01   -.509E-03 0.709E-03 -.194E-03
   -.319E+02 0.451E+02 -.196E+01   0.312E+02 -.457E+02 0.203E+01   0.641E+00 0.642E+00 -.713E-01   0.509E-03 -.709E-03 -.194E-03
   0.145E-03 0.607E-05 0.192E+02   -.497E-13 -.135E-12 0.220E-12   -.344E-14 0.888E-15 -.192E+02   -.179E-08 0.225E-09 -.150E-02

 POSITION                                       TOTAL-FORCE (eV/Angst)
      8.10029      8.47690      5.86893        -0.000526      0.000265     -0.000520
      0.02444      0.32819      0.00538         0.000526     -0.000265     -0.000520
      4.03792      4.73074      0.00538        -0.000526     -0.000265     -0.000520
      4.08681      4.07436      5.86893         0.000526      0.000265     -0.000520
      0.77782      1.52265      5.16576         0.001732      0.002519     -0.002615
      7.34691      7.28244     11.02931        -0.001732     -0.002519     -0.002615
      4.84019      2.87989     11.02931         0.001732     -0.002519     -0.002615
      3.28455      5.92520      5.16576        -0.001732      0.002519     -0.002615
      2.41045      3.06783      5.14606         0.003022      0.002675      0.000022
      5.71428      5.73726     11.00961        -0.003022     -0.002675      0.000022
      6.47282      1.33471     11.00961         0.003022     -0.002675      0.000022
      1.65191      7.47038      5.14606        -0.003022      0.002675      0.000022
      6.40522      0.63648      6.61895         0.001028      0.000345     -0.000506
      1.71952      8.16861      0.75540        -0.001028     -0.000345     -0.000506
      2.34285      3.76607      0.75540         0.001028     -0.000345     -0.000506
      5.78188      5.03903      6.61895        -0.001028      0.000345     -0.000506
      4.84164      2.25670      6.62417         0.002115      0.001027      0.000401
      3.28309      6.54840      0.76062        -0.002115     -0.001027      0.000401
      0.77928      2.14585      0.76062         0.002115     -0.001027      0.000401
      7.34545      6.65924      6.62417        -0.002115      0.001027      0.000401
      7.10272      8.33088      4.00250        -0.001368     -0.000056      0.001067
      1.02201      0.47421      9.86605         0.001368      0.000056      0.001067
      3.04035      4.87676      9.86605        -0.001368      0.000056      0.001067
      5.08438      3.92834      4.00250         0.001368     -0.000056      0.001067
      7.16130      0.01402      1.81069         0.000584     -0.003362      0.001114
      0.96343      8.79107      7.67424        -0.000584      0.003362      0.001114
      3.09893      4.38852      7.67424         0.000584      0.003362      0.001114
      5.02580      4.41657      1.81069        -0.000584     -0.003362      0.001114
      1.90131      1.99069      5.55684        -0.000900     -0.002589      0.000942
      6.22342      6.81440     11.42039         0.000900      0.002589      0.000942
      5.96368      2.41185     11.42039        -0.000900      0.002589      0.000942
      2.16105      6.39324      5.55684         0.000900     -0.002589      0.000942
      5.82843      1.63167      6.10857        -0.000533      0.000786     -0.000222
      2.29630      7.17342      0.24502         0.000533     -0.000786     -0.000222
      1.76606      2.77087      0.24502        -0.000533     -0.000786     -0.000222
      6.35867      6.03422      6.10857         0.000533      0.000786     -0.000222
      7.70747      8.69906      2.94187         0.000876     -0.000321     -0.003328
      0.41726      0.10603      8.80542        -0.000876      0.000321     -0.003328
      3.64511      4.50858      8.80542         0.000876      0.000321     -0.003328
      4.47963      4.29651      2.94187        -0.000876     -0.000321     -0.003328
      0.37119      4.61694      3.33855         0.000160      0.000863     -0.000716
      7.75354      4.18815      9.20210        -0.000160     -0.000863     -0.000716
      4.43356      8.59070      9.20210         0.000160     -0.000863     -0.000716
      3.69117      0.21440      3.33855        -0.000160      0.000863     -0.000716
      8.11342      5.54007      2.20591         0.001066      0.000251      0.000499
      0.01131      3.26502      8.06946        -0.001066     -0.000251      0.000499
      4.05106      7.66757      8.06946         0.001066     -0.000251      0.000499
      4.07368      1.13753      2.20591        -0.001066      0.000251      0.000499
      2.45055      1.38868      6.30572        -0.000707     -0.000876      0.000148
      5.67418      7.41641      0.44217         0.000707      0.000876      0.000148
      6.51291      3.01386      0.44217        -0.000707      0.000876      0.000148
      1.61182      5.79123      6.30572         0.000707     -0.000876      0.000148
      6.18700      2.00501      5.12885         0.000451      0.002870     -0.000720
      1.93773      6.80008     10.99240        -0.000451     -0.002870     -0.000720
      2.12464      2.39753     10.99240         0.000451     -0.002870     -0.000720
      6.00009      6.40756      5.12885        -0.000451      0.002870     -0.000720
      0.66246      0.12562      3.02500         0.000263      0.001611     -0.000223
      7.46227      8.67947      8.88855        -0.000263     -0.001611     -0.000223
      4.72482      4.27693      8.88855         0.000263     -0.001611     -0.000223
      3.39991      4.52817      3.02500        -0.000263      0.001611     -0.000223
[...]
      1.28843      5.44282      9.13564        -0.000379      0.000865     -0.000625
      2.77393      1.04027      9.13564         0.000379      0.000865     -0.000625
      5.35080      7.76483      3.27209        -0.000379     -0.000865     -0.000625
      0.09619      2.62387      3.95418         0.001287     -0.000687      0.001675
      8.02854      6.18122      9.81773        -0.001287      0.000687      0.001675
      4.15855      1.77868      9.81773         0.001287      0.000687      0.001675
      3.96618      7.02642      3.95418        -0.001287     -0.000687      0.001675
      0.02663      2.84822      2.27412         0.001846      0.000744     -0.002742
      8.09810      5.95687      8.13767        -0.001846     -0.000744     -0.002742
      4.08900      1.55432      8.13767         0.001846     -0.000744     -0.002742
      4.03573      7.25077      2.27412        -0.001846      0.000744     -0.002742
      7.86998      3.26750      3.19466        -0.001129      0.001294      0.000819
      0.25475      5.53759      9.05821         0.001129     -0.001294      0.000819
      3.80761      1.13505      9.05821        -0.001129     -0.001294      0.000819
      4.31712      7.67005      3.19466         0.001129      0.001294      0.000819
    total drift:                                0.000145      0.000006     -0.011455

  FREE ENERGIE OF THE ION-ELECTRON SYSTEM (eV)
  free  energy   TOTEN  =      -575.63090385 eV

  energy  without entropy=     -575.63090385  energy(sigma->0) =     -575.63090385

 total charge

[...]

 magnetization (x)

# of ion     s       p       d       tot
  1        0.000   0.000   0.000   0.000
  2        0.000   0.000   0.000   0.000
  3        0.000   0.000   0.000   0.000
  4        0.000   0.000   0.000   0.000
  5       -0.000  -0.000   0.000  -0.000
  6       -0.000  -0.000   0.000  -0.000
  7       -0.000  -0.000   0.000  -0.000
  8       -0.000  -0.000   0.000  -0.000
  9       -0.000  -0.000   0.000  -0.000
 10       -0.000  -0.000   0.000  -0.000
 11       -0.000  -0.000   0.000  -0.000
 12       -0.000  -0.000   0.000  -0.000
 13       -0.000  -0.000   0.000  -0.000
 14       -0.000  -0.000   0.000  -0.000
 15       -0.000  -0.000   0.000  -0.000
 16       -0.000  -0.000   0.000  -0.000
 17       -0.000  -0.000   0.000  -0.000
 18       -0.000  -0.000   0.000  -0.000
 19       -0.000  -0.000   0.000  -0.000
 20       -0.000  -0.000   0.000  -0.000
 21       -0.000  -0.000   0.000  -0.000
 22       -0.000  -0.000   0.000  -0.000
 23       -0.000  -0.000   0.000  -0.000
 24       -0.000  -0.000   0.000  -0.000
 25       -0.000  -0.000   0.000  -0.000
 26       -0.000  -0.000   0.000  -0.000
 27       -0.000  -0.000   0.000  -0.000
 28       -0.000  -0.000   0.000  -0.000
 29       -0.000   0.000   0.000  -0.000
 30       -0.000   0.000   0.000  -0.000
 31       -0.000   0.000   0.000  -0.000
 32       -0.000   0.000   0.000  -0.000
 33       -0.000   0.000   0.000   0.000
 34       -0.000   0.000   0.000   0.000
 35       -0.000   0.000   0.000   0.000
 36       -0.000   0.000   0.000   0.000
 37       -0.000   0.000   0.000  -0.000
 38       -0.000   0.000   0.000  -0.000
 39       -0.000   0.000   0.000  -0.000
 40       -0.000   0.000   0.000  -0.000
 41       -0.000  -0.000   0.000  -0.000
 42       -0.000  -0.000   0.000  -0.000
 43       -0.000  -0.000   0.000  -0.000
 44       -0.000  -0.000   0.000  -0.000
 45       -0.000  -0.000   0.000  -0.000
 46       -0.000  -0.000   0.000  -0.000
 47       -0.000  -0.000   0.000  -0.000
 48       -0.000  -0.000   0.000  -0.000
 49        0.000  -0.000   0.000  -0.000
 50        0.000  -0.000   0.000  -0.000
 51        0.000  -0.000   0.000  -0.000
 52        0.000  -0.000   0.000  -0.000
 53        0.000  -0.000   0.000  -0.000
 54        0.000  -0.000   0.000  -0.000
 55        0.000  -0.000   0.000  -0.000
 56        0.000  -0.000   0.000  -0.000
 57       -0.000  -0.000   0.000  -0.000
 58       -0.000  -0.000   0.000  -0.000
 59       -0.000  -0.000   0.000  -0.000
 60       -0.000  -0.000   0.000  -0.000
[...]
 82       -0.000  -0.000   0.000  -0.000
 83       -0.000  -0.000   0.000  -0.000
 84       -0.000  -0.000   0.000  -0.000
 85       -0.000  -0.000   0.000  -0.000
 86       -0.000  -0.000   0.000  -0.000
 87       -0.000  -0.000   0.000  -0.000
 88       -0.000  -0.000   0.000  -0.000
 89       -0.000  -0.000   0.000  -0.000
 90       -0.000  -0.000   0.000  -0.000
 91       -0.000  -0.000   0.000  -0.000
 92       -0.000  -0.000   0.000  -0.000
 93       -0.000  -0.000   0.000  -0.000
 94       -0.000  -0.000   0.000  -0.000
 95       -0.000  -0.000   0.000  -0.000
 96       -0.000  -0.000   0.000  -0.000
tot       -0.000  -0.000   0.000  -0.000