 vasp.5.4.1 24Jun15 (build Aug 03 2015 13:31:17) complex

 executed on      LinuxIFC_2015xe date 2021.08.25  14:10:16

 INCAR:
 POTCAR:    PAW_PBE Mn_pv 02Aug2007
 POTCAR:   PAW_PBE O 08Apr2002
 POTCAR:   PAW_PBE C 08Apr2002
 POTCAR:   PAW_PBE H 15Jun2001
 POTCAR:   PAW_PBE N 08Apr2002

 POTCAR:    PAW_PBE Mn_pv 02Aug2007
   VRHFIN =Mn: 3p4s3d

   TITEL  = PAW_PBE Mn_pv 02Aug2007
   POMASS =   54.938; ZVAL   =   13.000    mass and valenz
   ENMAX  =  269.864; ENMIN  =  202.398 eV

 POTCAR:   PAW_PBE O 08Apr2002
   VRHFIN =O: s2p4

   TITEL  = PAW_PBE O 08Apr2002
   POMASS =   16.000; ZVAL   =    6.000    mass and valenz
   ENMAX  =  400.000; ENMIN  =  300.000 eV
   QCUT   =   -5.520; QGAM   =   11.041    optimization parameters

   Description
     l     E      TYP  RCUT    TYP  RCUT
     0   .000     23  1.200
     0  -.700     23  1.200
     1   .000     23  1.520
     1   .600     23  1.520
     2   .000      7  1.500

 POTCAR:   PAW_PBE C 08Apr2002
   VRHFIN =C: s2p2

[...]

 POTCAR:   PAW_PBE H 15Jun2001
   VRHFIN =H: ultrasoft test

   TITEL  = PAW_PBE H 15Jun2001
   POMASS =    1.000; ZVAL   =    1.000    mass and valenz
   ENMAX  =  250.000; ENMIN  =  200.000 eV
   QCUT   =   -5.749; QGAM   =   11.498    optimization parameters

[...]

 POTCAR:   PAW_PBE N 08Apr2002
   VRHFIN =N: s2p3

   TITEL  = PAW_PBE N 08Apr2002
   POMASS =   14.001; ZVAL   =    5.000    mass and valenz
   ENMAX  =  400.000; ENMIN  =  300.000 eV
   QCUT   =   -5.562; QGAM   =   11.124    optimization parameters

   Description
     l     E      TYP  RCUT    TYP  RCUT
     0   .000     23  1.200
     0   .000     23  1.200
     1   .000     23  1.500
     1   .700     23  1.500
     2   .000      7  1.500

 Optimization of the real space projectors (new method)

 maximal supplied QI-value         = 16.25
 optimisation between [QCUT,QGAM] = [ 13.49, 33.80] = [ 50.95,319.98] Ry
 Optimized for a Real-space Cutoff    1.23 Angstroem

   l    n(q)    QCUT    max X(q) W(low)/X(q) W(high)/X(q)  e(spline)
   1     12    13.489     3.658    0.95E-04    0.21E-03    0.14E-04
   1     12    13.489     5.612    0.18E-03    0.41E-03    0.27E-04
   2     12    13.489    55.373    0.32E-03    0.64E-04    0.72E-05
   2     12    13.489    50.863    0.33E-03    0.67E-04    0.74E-05
   0     13    13.489    79.536    0.81E-04    0.26E-04    0.11E-04
   0     13    13.489    38.668    0.75E-04    0.24E-04    0.96E-05
 Optimization of the real space projectors (new method)

[...]

   l    n(q)    QCUT    max X(q) W(low)/X(q) W(high)/X(q)  e(spline)
   0      8    13.340     4.436    0.20E-04    0.16E-04    0.97E-08
   0      8    13.340    16.131    0.40E-04    0.25E-03    0.82E-07
   1      7    13.340     4.654    0.40E-03    0.13E-03    0.72E-07
 Optimization of the real space projectors (new method)

 maximal supplied QI-value         = 25.13
 optimisation between [QCUT,QGAM] = [ 13.32, 33.68] = [ 49.69,317.62] Ry
 Optimized for a Real-space Cutoff    0.86 Angstroem

   l    n(q)    QCUT    max X(q) W(low)/X(q) W(high)/X(q)  e(spline)
   0      9    13.321     4.511    0.35E-04    0.22E-04    0.23E-07
   0      9    13.321    37.799    0.39E-03    0.28E-03    0.13E-06
   1      8    13.321     2.478    0.33E-04    0.17E-04    0.12E-07
   1      8    13.321    14.359    0.19E-03    0.46E-03    0.40E-06
  PAW_PBE Mn_pv 02Aug2007               :
 PAW_PBE O 08Apr2002                    :
 PAW_PBE C 08Apr2002                    :
 PAW_PBE H 15Jun2001                    :
 PAW_PBE N 08Apr2002                    :

 POSCAR: C3 H8 Mn N2 O6
  positions in direct lattice
  velocities in cartesian coordinates
 exchange correlation table for  LEXCH =        8
   RHO(1)=    0.500       N(1)  =     2000
   RHO(2)=  100.500       N(2)  =     4000

 ion  position               nearest neighbor table
   1  0.540  0.498  0.110-  26 2.19  13 2.20  11 2.20   5 2.20  19 2.22  21 2.23
   2  0.460  0.502  0.610-  25 2.19  14 2.20  12 2.20   6 2.20  20 2.22  22 2.23
   3  0.040  0.002  0.110-  28 2.19  15 2.20   9 2.20   7 2.20  17 2.22  23 2.23
   4  0.960  0.998  0.610-  27 2.19  16 2.20  10 2.20   8 2.20  18 2.22  24 2.23
   5  0.323  0.425  0.184-  29 1.26   1 2.20
   6  0.677  0.575  0.684-  30 1.26   2 2.20
   7  0.823  0.075  0.184-  31 1.26   3 2.20
   8  0.177  0.925  0.684-  32 1.26   4 2.20
   9  0.134  0.238  0.183-  29 1.28   3 2.20
  10  0.866  0.762  0.683-  30 1.28   4 2.20
  11  0.634  0.262  0.183-  31 1.28   1 2.20
  12  0.366  0.738  0.683-  32 1.28   2 2.20
  13  0.443  0.731  0.036-  33 1.27   1 2.20
  14  0.557  0.269  0.536-  34 1.27   2 2.20
  15  0.943  0.769  0.036-  35 1.27   3 2.20
  16  0.057  0.231  0.536-  36 1.27   4 2.20
  17  0.256  0.922  0.033-  33 1.28   3 2.22
  18  0.744  0.078  0.533-  34 1.28   4 2.22
  19  0.756  0.578  0.033-  35 1.28   1 2.22
  20  0.244  0.422  0.533-  36 1.28   2 2.22
  21  0.568  0.655  0.268-  37 1.28   1 2.23
  22  0.432  0.345  0.768-  38 1.28   2 2.23
  23  0.068  0.845  0.268-  39 1.28   3 2.23
  24  0.932  0.155  0.768-  40 1.28   4 2.23
  25  0.509  0.647  0.454-  37 1.27   2 2.19
  26  0.491  0.353  0.954-  38 1.27   1 2.19
  27  0.009  0.853  0.454-  39 1.27   4 2.19
  28  0.991  0.147  0.954-  40 1.27   3 2.19
  29  0.268  0.281  0.160-  41 1.11   5 1.26   9 1.28
  30  0.732  0.719  0.660-  42 1.11   6 1.26  10 1.28
  31  0.768  0.219  0.160-  43 1.11   7 1.26  11 1.28
  32  0.232  0.781  0.660-  44 1.11   8 1.26  12 1.28
  33  0.324  0.794  0.077-  45 1.11  13 1.27  17 1.28
  34  0.676  0.206  0.577-  46 1.11  14 1.27  18 1.28
  35  0.824  0.706  0.077-  47 1.11  15 1.27  19 1.28
  36  0.176  0.294  0.577-  48 1.11  16 1.27  20 1.28
  37  0.545  0.575  0.361-  49 1.11  25 1.27  21 1.28
  38  0.455  0.425  0.861-  50 1.11  26 1.27  22 1.28
  39  0.045  0.925  0.361-  51 1.11  27 1.27  23 1.28
  40  0.955  0.075  0.861-  52 1.11  28 1.27  24 1.28
  41  0.339  0.187  0.114-  29 1.11
  42  0.661  0.813  0.614-  30 1.11
  43  0.839  0.313  0.114-  31 1.11
  44  0.161  0.687  0.614-  32 1.11
  45  0.275  0.735  0.154-  33 1.11
  46  0.725  0.265  0.654-  34 1.11
  47  0.775  0.765  0.154-  35 1.11
  48  0.225  0.235  0.654-  36 1.11
  49  0.556  0.435  0.360-  37 1.11
  50  0.444  0.565  0.860-  38 1.11
  51  0.056  0.065  0.360-  39 1.11
  52  0.944  0.935  0.860-  40 1.11
  53  0.073  0.624  0.302-  73 1.05
  54  0.927  0.376  0.802-  74 1.05
  55  0.573  0.876  0.302-  75 1.05
  56  0.427  0.124  0.802-  76 1.05
  57  0.076  0.409  0.276-  73 1.05
  58  0.924  0.591  0.776-  74 1.05
  59  0.576  0.091  0.276-  75 1.05
  60  0.424  0.909  0.776-  76 1.05
[...]
  66  0.097  0.397  0.934-  78 1.03
  67  0.403  0.897  0.434-  79 1.03
  68  0.597  0.103  0.934-  80 1.03
  69  0.922  0.394  0.447-  77 1.03
  70  0.078  0.606  0.947-  78 1.03
  71  0.422  0.106  0.447-  79 1.03
  72  0.578  0.894  0.947-  80 1.03
  73  0.062  0.503  0.339-  57 1.05  61 1.05  53 1.05  77 1.45
  74  0.938  0.497  0.839-  58 1.05  62 1.05  54 1.05  78 1.45
  75  0.562  0.997  0.339-  59 1.05  63 1.05  55 1.05  79 1.45
  76  0.438  0.003  0.839-  60 1.05  64 1.05  56 1.05  80 1.45
  77  0.914  0.491  0.388-  65 1.03  69 1.03  73 1.45
  78  0.086  0.509  0.888-  66 1.03  70 1.03  74 1.45
  79  0.414  0.009  0.388-  67 1.03  71 1.03  75 1.45
  80  0.586  0.991  0.888-  68 1.03  72 1.03  76 1.45

  LATTYP: Found a simple orthorhombic cell.
 ALAT       =     7.8364569896
 B/A-ratio  =     1.1435626225
 C/A-ratio  =     1.4904249943

  Lattice vectors:

 A1 = (   0.0000000000,  -7.8364569896,   0.0000000000)
 A2 = (  -8.9614793059,   0.0000000000,   0.0000000000)
 A3 = (   0.0000000000,   0.0000000000, -11.6796513636)

Analysis of symmetry for initial positions (statically):
 Subroutine PRICEL returns:
 Original cell was already a primitive cell.

 Routine SETGRP: Setting up the symmetry group for a
 simple orthorhombic supercell.

 Subroutine GETGRP returns: Found  4 space group operations
 (whereof  1 operations were pure point group operations)
 out of a pool of  8 trial point group operations.

The static configuration has the point symmetry C_1 .
 The point group associated with its full space group is C_2v.

Analysis of symmetry for dynamics (positions and initial velocities):
 Subroutine PRICEL returns:
 Original cell was already a primitive cell.

 Routine SETGRP: Setting up the symmetry group for a
 simple orthorhombic supercell.

 Subroutine GETGRP returns: Found  4 space group operations
 (whereof  1 operations were pure point group operations)
 out of a pool of  8 trial point group operations.

The dynamic configuration has the point symmetry C_1 .
 The point group associated with its full space group is C_2v.

Analysis of magnetic symmetry:
 Subroutine PRICEL returns:
 Original cell was already a primitive cell.

 Subroutine MAGSYM returns: Found  4 space group operations
 (whereof  1 operations were pure point group operations)
 out of a pool of  4 trial space group operations
 (whereof  1 operations were pure point group operations)
 and found also     1 'primitive' translations

The magnetic configuration has the point symmetry C_1 .
 The point group associated with its full space group is C_2v.

 KPOINTS: Automatic mesh

Automatic generation of k-mesh.
Space group operators:
 irot       det(A)        alpha          n_x          n_y          n_z        tau_x        tau_y        tau_z
    1     1.000000     0.000001     1.000000     0.000000     0.000000     0.000000     0.000000     0.000000
    2     1.000000   180.000000     0.000000     0.000000     1.000000     0.000000     0.000000    -0.500000
    3    -1.000000   180.000000     1.000000     0.000000     0.000000    -0.500000    -0.500000    -0.500000
    4    -1.000000   180.000000     0.000000     1.000000     0.000000    -0.500000    -0.500000     0.000000

 Subroutine IBZKPT returns following result:

 Found     18 irreducible k-points:

 Following reciprocal coordinates:
            Coordinates               Weight
  0.000000  0.000000  0.000000      1.000000
  0.200000  0.000000  0.000000      2.000000
  0.400000  0.000000  0.000000      2.000000
  0.000000  0.200000  0.000000      2.000000
  0.200000  0.200000  0.000000      4.000000
  0.400000  0.200000  0.000000      4.000000
  0.000000  0.400000  0.000000      2.000000
  0.200000  0.400000  0.000000      4.000000
  0.400000  0.400000  0.000000      4.000000
  0.000000  0.000000  0.333333      2.000000
  0.200000  0.000000  0.333333      4.000000
  0.400000  0.000000  0.333333      4.000000
  0.000000  0.200000  0.333333      4.000000
  0.200000  0.200000  0.333333      8.000000
  0.400000  0.200000  0.333333      8.000000
  0.000000  0.400000  0.333333      4.000000
  0.200000  0.400000  0.333333      8.000000
  0.400000  0.400000  0.333333      8.000000

 Following cartesian coordinates:
            Coordinates               Weight
  0.000000  0.000000  0.000000      1.000000
  0.022318  0.000000  0.000000      2.000000
  0.044635  0.000000  0.000000      2.000000
  0.000000  0.025522  0.000000      2.000000
  0.022318  0.025522  0.000000      4.000000
  0.044635  0.025522  0.000000      4.000000
  0.000000  0.051043  0.000000      2.000000
[...]
   -.736E+02 0.160E+03 0.184E+02   0.814E+02 -.182E+03 -.529E+02   -.779E+01 0.224E+02 0.344E+02   0.157E-03 -.134E-03 -.639E-03
   0.736E+02 -.160E+03 0.184E+02   -.814E+02 0.182E+03 -.529E+02   0.779E+01 -.224E+02 0.344E+02   -.109E-03 0.135E-03 -.632E-03
   0.127E+02 -.159E+03 -.182E+02   -.229E+02 0.183E+03 0.527E+02   0.102E+02 -.237E+02 -.345E+02   -.186E-03 0.448E-04 0.656E-03
   -.127E+02 0.159E+03 -.182E+02   0.229E+02 -.183E+03 0.527E+02   -.102E+02 0.237E+02 -.345E+02   0.146E-03 -.466E-04 0.658E-03
   0.127E+02 0.159E+03 -.182E+02   -.229E+02 -.183E+03 0.527E+02   0.102E+02 0.237E+02 -.345E+02   -.157E-03 -.478E-04 0.657E-03
   -.127E+02 -.159E+03 -.182E+02   0.229E+02 0.183E+03 0.527E+02   -.102E+02 -.237E+02 -.345E+02   0.206E-03 0.476E-04 0.652E-03
   -.605E+02 0.820E+02 0.384E+02   0.647E+02 -.866E+02 -.418E+02   -.420E+01 0.462E+01 0.340E+01   0.191E-03 -.257E-03 -.177E-03
   0.605E+02 -.820E+02 0.384E+02   -.647E+02 0.866E+02 -.418E+02   0.420E+01 -.462E+01 0.340E+01   -.192E-03 0.252E-03 -.172E-03
   -.605E+02 -.820E+02 0.384E+02   0.647E+02 0.866E+02 -.418E+02   -.420E+01 -.462E+01 0.340E+01   0.184E-03 0.258E-03 -.173E-03
   0.605E+02 0.820E+02 0.384E+02   -.647E+02 -.866E+02 -.418E+02   0.420E+01 0.462E+01 0.340E+01   -.185E-03 -.253E-03 -.169E-03
   0.432E+02 0.376E+02 -.933E+02   -.460E+02 -.407E+02 0.992E+02   0.282E+01 0.309E+01 -.597E+01   -.154E-03 -.130E-03 0.287E-03
   -.432E+02 -.376E+02 -.933E+02   0.460E+02 0.407E+02 0.992E+02   -.282E+01 -.309E+01 -.597E+01   0.141E-03 0.136E-03 0.289E-03
   0.432E+02 -.376E+02 -.933E+02   -.460E+02 0.407E+02 0.992E+02   0.282E+01 -.309E+01 -.597E+01   -.143E-03 0.130E-03 0.284E-03
   -.432E+02 0.376E+02 -.933E+02   0.460E+02 -.407E+02 0.992E+02   -.282E+01 0.309E+01 -.597E+01   0.152E-03 -.134E-03 0.288E-03
   -.315E+02 0.106E+03 -.543E+01   0.321E+02 -.113E+03 0.536E+01   -.599E+00 0.727E+01 0.659E-01   0.212E-04 -.371E-03 -.925E-05
   0.315E+02 -.106E+03 -.543E+01   -.321E+02 0.113E+03 0.536E+01   0.599E+00 -.727E+01 0.659E-01   -.443E-04 0.371E-03 -.495E-05
   -.315E+02 -.106E+03 -.543E+01   0.321E+02 0.113E+03 0.536E+01   -.599E+00 -.727E+01 0.659E-01   0.497E-04 0.371E-03 -.109E-04
   0.315E+02 0.106E+03 -.543E+01   -.321E+02 -.113E+03 0.536E+01   0.599E+00 0.727E+01 0.659E-01   -.197E-04 -.371E-03 -.106E-04
   -.335E+02 0.385E+02 0.214E+02   0.368E+02 -.424E+02 -.241E+02   -.329E+01 0.385E+01 0.277E+01   0.561E-04 -.691E-04 -.515E-04
   0.335E+02 -.385E+02 0.214E+02   -.368E+02 0.424E+02 -.241E+02   0.329E+01 -.385E+01 0.277E+01   -.600E-04 0.682E-04 -.508E-04
   -.335E+02 -.385E+02 0.214E+02   0.368E+02 0.424E+02 -.241E+02   -.329E+01 -.385E+01 0.277E+01   0.601E-04 0.700E-04 -.517E-04
   0.335E+02 0.385E+02 0.214E+02   -.368E+02 -.424E+02 -.241E+02   0.329E+01 0.385E+01 0.277E+01   -.571E-04 -.686E-04 -.507E-04
   0.206E+02 0.212E+02 -.466E+02   -.229E+02 -.236E+02 0.514E+02   0.227E+01 0.246E+01 -.477E+01   -.464E-04 -.433E-04 0.901E-04
   -.206E+02 -.212E+02 -.466E+02   0.229E+02 0.236E+02 0.514E+02   -.227E+01 -.246E+01 -.477E+01   0.458E-04 0.449E-04 0.919E-04
   0.206E+02 -.212E+02 -.466E+02   -.229E+02 0.236E+02 0.514E+02   0.227E+01 -.246E+01 -.477E+01   -.477E-04 0.434E-04 0.920E-04
   -.206E+02 0.212E+02 -.466E+02   0.229E+02 -.236E+02 0.514E+02   -.227E+01 0.246E+01 -.477E+01   0.476E-04 -.444E-04 0.925E-04
   -.102E+02 0.541E+02 -.122E+01   0.107E+02 -.599E+02 0.118E+01   -.585E+00 0.579E+01 0.372E-01   0.259E-05 -.108E-03 -.322E-05
   0.102E+02 -.541E+02 -.122E+01   -.107E+02 0.599E+02 0.118E+01   0.585E+00 -.579E+01 0.372E-01   -.802E-05 0.108E-03 -.214E-05
   -.102E+02 -.541E+02 -.122E+01   0.107E+02 0.599E+02 0.118E+01   -.585E+00 -.579E+01 0.372E-01   0.950E-05 0.108E-03 -.381E-05
   0.102E+02 0.541E+02 -.122E+01   -.107E+02 -.599E+02 0.118E+01   0.585E+00 0.579E+01 0.372E-01   -.246E-05 -.108E-03 -.368E-05
   -.115E+02 -.302E+02 0.261E+02   0.121E+02 0.364E+02 -.289E+02   -.619E+00 -.616E+01 0.280E+01   0.539E-04 0.121E-03 -.849E-04
   0.115E+02 0.302E+02 0.261E+02   -.121E+02 -.364E+02 -.289E+02   0.619E+00 0.616E+01 0.280E+01   -.483E-04 -.121E-03 -.842E-04
   -.115E+02 0.302E+02 0.261E+02   0.121E+02 -.364E+02 -.289E+02   -.619E+00 0.616E+01 0.280E+01   0.460E-04 -.121E-03 -.842E-04
   0.115E+02 -.302E+02 0.261E+02   -.121E+02 0.364E+02 -.289E+02   0.619E+00 -.616E+01 0.280E+01   -.524E-04 0.121E-03 -.825E-04
   0.251E+01 0.256E+02 0.316E+02   -.165E+01 -.305E+02 -.365E+02   -.860E+00 0.487E+01 0.486E+01   0.258E-04 -.102E-03 -.104E-03
   -.251E+01 -.256E+02 0.316E+02   0.165E+01 0.305E+02 -.365E+02   0.860E+00 -.487E+01 0.486E+01   -.201E-04 0.102E-03 -.104E-03
   0.251E+01 -.256E+02 0.316E+02   -.165E+01 0.305E+02 -.365E+02   -.860E+00 -.487E+01 0.486E+01   0.171E-04 0.102E-03 -.104E-03
   -.251E+01 0.256E+02 0.316E+02   0.165E+01 -.305E+02 -.365E+02   0.860E+00 0.487E+01 0.486E+01   -.238E-04 -.102E-03 -.102E-03
[...]
   0.219E+02 0.401E+02 -.315E+02   -.227E+02 -.463E+02 0.351E+02   0.870E+00 0.624E+01 -.367E+01   -.425E-04 -.132E-03 0.113E-03
   -.219E+02 -.401E+02 -.315E+02   0.227E+02 0.463E+02 0.351E+02   -.870E+00 -.624E+01 -.367E+01   0.365E-04 0.133E-03 0.113E-03
   0.155E+02 0.353E+02 -.331E+02   -.151E+02 -.408E+02 0.379E+02   -.339E+00 0.551E+01 -.476E+01   -.147E-04 -.123E-03 0.125E-03
   -.155E+02 -.353E+02 -.331E+02   0.151E+02 0.408E+02 0.379E+02   0.339E+00 -.551E+01 -.476E+01   0.202E-04 0.123E-03 0.125E-03
   0.155E+02 -.353E+02 -.331E+02   -.151E+02 0.408E+02 0.379E+02   -.339E+00 -.551E+01 -.476E+01   -.182E-04 0.123E-03 0.124E-03
   -.155E+02 0.353E+02 -.331E+02   0.151E+02 -.408E+02 0.379E+02   0.339E+00 0.551E+01 -.476E+01   0.117E-04 -.123E-03 0.125E-03
   -.504E+02 -.354E+01 0.437E+02   0.550E+02 0.383E+01 -.462E+02   -.457E+01 -.285E+00 0.249E+01   0.621E-03 0.103E-04 -.201E-03
   0.504E+02 0.354E+01 0.437E+02   -.550E+02 -.383E+01 -.462E+02   0.457E+01 0.285E+00 0.249E+01   -.592E-03 -.981E-05 -.199E-03
   -.504E+02 0.354E+01 0.437E+02   0.550E+02 -.383E+01 -.462E+02   -.457E+01 0.285E+00 0.249E+01   0.582E-03 -.101E-04 -.199E-03
   0.504E+02 -.354E+01 0.437E+02   -.550E+02 0.383E+01 -.462E+02   0.457E+01 -.285E+00 0.249E+01   -.619E-03 0.102E-04 -.190E-03
   0.137E+03 0.149E+02 0.302E+01   -.165E+03 -.194E+02 -.203E+02   0.273E+02 0.451E+01 0.173E+02   -.380E-03 -.346E-04 0.442E-03
   -.137E+03 -.149E+02 0.302E+01   0.165E+03 0.194E+02 -.203E+02   -.273E+02 -.451E+01 0.173E+02   0.408E-03 0.352E-04 0.444E-03
   0.137E+03 -.149E+02 0.302E+01   -.165E+03 0.194E+02 -.203E+02   0.273E+02 -.451E+01 0.173E+02   -.403E-03 0.348E-04 0.432E-03
   -.137E+03 0.149E+02 0.302E+01   0.165E+03 -.194E+02 -.203E+02   -.273E+02 0.451E+01 0.173E+02   0.369E-03 -.351E-04 0.439E-03
   0.908E-03 0.199E-03 -.969E+02   0.369E-12 -.817E-13 0.355E-12   -.355E-14 0.888E-14 0.969E+02   0.983E-04 -.795E-06 0.107E-02

 POSITION                                       TOTAL-FORCE (eV/Angst)
      4.84290      3.90505      1.28668        -0.000394      0.000503     -0.000418
      4.11858      3.93140      7.12651         0.000394     -0.000503     -0.000418
      0.36216      0.01317      1.28668        -0.000394     -0.000503     -0.000418
      8.59932      7.82328      7.12651         0.000394      0.000503     -0.000418
      2.89731      3.33259      2.15210        -0.000687      0.000199     -0.000673
      6.06417      4.50387      7.99193         0.000687     -0.000199     -0.000673
      7.37805      0.58564      2.15210        -0.000687     -0.000199     -0.000673
      1.58343      7.25082      7.99193         0.000687      0.000199     -0.000673
      1.20406      1.86356      2.13798         0.001300      0.000004      0.000735
      7.75742      5.97289      7.97781        -0.001300     -0.000004      0.000735
      5.68479      2.05467      2.13798         0.001300     -0.000004      0.000735
      3.27668      5.78179      7.97781        -0.001300      0.000004      0.000735
      3.96760      5.72803      0.42322        -0.000191      0.000520     -0.001103
      4.99388      2.10843      6.26305         0.000191     -0.000520     -0.001103
      8.44834      6.02665      0.42322        -0.000191     -0.000520     -0.001103
      0.51314      1.80980      6.26305         0.000191      0.000520     -0.001103
      2.29519      7.22315      0.39124         0.000559     -0.000364      0.001508
      6.66629      0.61330      6.23107        -0.000559      0.000364      0.001508
      6.77593      4.53153      0.39124         0.000559      0.000364      0.001508
      2.18555      3.30493      6.23107        -0.000559     -0.000364      0.001508
      5.08806      5.13570      3.12748         0.000200     -0.000069      0.000917
      3.87342      2.70075      8.96731        -0.000200      0.000069      0.000917
      0.60732      6.61898      3.12748         0.000200      0.000069      0.000917
      8.35416      1.21748      8.96731        -0.000200     -0.000069      0.000917
      4.56254      5.07297      5.30793         0.000011     -0.000170      0.001651
      4.39894      2.76349     11.14776        -0.000011      0.000170      0.001651
      0.08180      6.68172      5.30793         0.000011      0.000170      0.001651
      8.87968      1.15474     11.14776        -0.000011     -0.000170      0.001651
      2.40467      2.20531      1.86399        -0.000339      0.000150      0.000256
      6.55681      5.63115      7.70381         0.000339     -0.000150      0.000256
      6.88541      1.71292      1.86399        -0.000339     -0.000150      0.000256
      2.07607      6.12354      7.70381         0.000339      0.000150      0.000256
      2.90102      6.22105      0.89598        -0.000077      0.000152     -0.001083
      6.06046      1.61541      6.73580         0.000077     -0.000152     -0.001083
      7.38176      5.53364      0.89598        -0.000077     -0.000152     -0.001083
      1.57972      2.30282      6.73580         0.000077      0.000152     -0.001083
      4.87985      4.50899      4.21867        -0.000106     -0.000163      0.000081
      4.08163      3.32746     10.05850         0.000106      0.000163      0.000081
      0.39911      7.24569      4.21867        -0.000106      0.000163      0.000081
      8.56237      0.59077     10.05850         0.000106     -0.000163      0.000081
      3.03620      1.46614      1.33477         0.000032     -0.000270     -0.000254
      5.92528      6.37032      7.17460        -0.000032      0.000270     -0.000254
      7.51694      2.45209      1.33477         0.000032      0.000270     -0.000254
      1.44454      5.38437      7.17460        -0.000032     -0.000270     -0.000254
      2.46436      5.75631      1.79974         0.000041     -0.000133     -0.000866
      6.49712      2.08015      7.63956        -0.000041      0.000133     -0.000866
      6.94510      5.99838      1.79974         0.000041      0.000133     -0.000866
      2.01638      1.83808      7.63956        -0.000041     -0.000133     -0.000866
      4.98476      3.40841      4.20636        -0.000191      0.000239      0.000055
      3.97672      4.42804     10.04619         0.000191     -0.000239      0.000055
      0.50402      0.50981      4.20636        -0.000191     -0.000239      0.000055
      8.45745      7.32664     10.04619         0.000191      0.000239      0.000055
      0.65493      4.89322      3.53070        -0.000010     -0.000088     -0.000095
      8.30655      2.94323      9.37053         0.000010      0.000088     -0.000095
      5.13567      6.86146      3.53070        -0.000010      0.000088     -0.000095
      3.82581      0.97500      9.37053         0.000010     -0.000088     -0.000095
      0.68382      3.20181      3.22935        -0.000089     -0.000240     -0.000109
      8.27766      4.63465      9.06917         0.000089      0.000240     -0.000109
      5.16456      0.71642      3.22935        -0.000089      0.000240     -0.000109
      3.79692      7.12004      9.06917         0.000089     -0.000240     -0.000109
[...]
      0.86809      3.11198     10.91011        -0.000020     -0.000157     -0.000548
      3.61265      7.03021      5.07029         0.000020     -0.000157     -0.000548
      5.34883      0.80625     10.91011        -0.000020      0.000157     -0.000548
      8.26009      3.08594      5.21999        -0.000081     -0.000042      0.000082
      0.70139      4.75051     11.05981         0.000081      0.000042      0.000082
      3.77935      0.83228      5.21999        -0.000081      0.000042      0.000082
      5.18213      7.00417     11.05981         0.000081     -0.000042      0.000082
      0.55958      3.93881      3.96347        -0.000384      0.000701      0.000420
      8.40190      3.89765      9.80330         0.000384     -0.000701      0.000420
      5.04032      7.81588      3.96347        -0.000384     -0.000701      0.000420
      3.92116      0.02058      9.80330         0.000384      0.000701      0.000420
      8.19025      3.85126      4.53460         0.000577      0.000370     -0.000965
      0.77123      3.98520     10.37443        -0.000577     -0.000370     -0.000965
      3.70951      0.06697      4.53460         0.000577     -0.000370     -0.000965
      5.25197      7.76949     10.37443        -0.000577      0.000370     -0.000965
    total drift:                                0.001006      0.000199     -0.042180

  FREE ENERGIE OF THE ION-ELECTRON SYSTEM (eV)
  free  energy   TOTEN  =      -501.70552908 eV

  energy  without entropy=     -501.70552908  energy(sigma->0) =     -501.70552908

 total charge

[...]

 magnetization (x)

# of ion     s       p       d       tot
  1       -0.023  -0.022  -4.607  -4.651
  2        0.023   0.022   4.607   4.651
  3        0.023   0.022   4.607   4.651
  4       -0.023  -0.022  -4.607  -4.651
  5       -0.003  -0.008   0.000  -0.011
  6        0.003   0.008   0.000   0.011
  7        0.003   0.008   0.000   0.011
  8       -0.003  -0.008   0.000  -0.011
  9        0.003   0.007   0.000   0.009
 10       -0.003  -0.007   0.000  -0.009
 11       -0.003  -0.007   0.000  -0.009
 12        0.003   0.007   0.000   0.009
 13       -0.003  -0.008   0.000  -0.011
 14        0.003   0.008   0.000   0.011
 15        0.003   0.008   0.000   0.011
 16       -0.003  -0.008   0.000  -0.011
 17        0.003   0.007   0.000   0.010
 18       -0.003  -0.007   0.000  -0.010
 19       -0.003  -0.007   0.000  -0.010
 20        0.003   0.007   0.000   0.010
 21       -0.003  -0.006   0.000  -0.009
 22        0.003   0.006   0.000   0.009
 23        0.003   0.006   0.000   0.009
 24       -0.003  -0.006   0.000  -0.009
 25        0.003   0.008   0.000   0.011
 26       -0.003  -0.008   0.000  -0.011
 27       -0.003  -0.008   0.000  -0.011
 28        0.003   0.008   0.000   0.011
 29       -0.000  -0.000   0.000  -0.000
 30        0.000   0.000   0.000   0.000
 31        0.000   0.000   0.000   0.000
 32       -0.000  -0.000   0.000  -0.000
 33       -0.000  -0.000   0.000  -0.000
 34        0.000   0.000   0.000   0.000
 35        0.000   0.000   0.000   0.000
 36       -0.000  -0.000   0.000  -0.000
 37        0.000  -0.000   0.000  -0.000
 38       -0.000   0.000   0.000   0.000
 39       -0.000   0.000   0.000   0.000
 40        0.000  -0.000   0.000  -0.000
 41       -0.000  -0.000   0.000  -0.000
 42        0.000   0.000   0.000   0.000
 43        0.000   0.000   0.000   0.000
 44       -0.000  -0.000   0.000  -0.000
 45       -0.000  -0.000   0.000  -0.000
 46        0.000   0.000   0.000   0.000
 47        0.000  -0.000   0.000   0.000
 48       -0.000   0.000   0.000  -0.000
 49        0.000  -0.000   0.000  -0.000
 50       -0.000   0.000   0.000   0.000
 51       -0.000   0.000   0.000   0.000
 52        0.000  -0.000   0.000  -0.000
 53        0.000   0.000   0.000   0.000
 54       -0.000  -0.000   0.000  -0.000
 55       -0.000  -0.000   0.000  -0.000
 56        0.000   0.000   0.000   0.000
 57        0.000   0.000   0.000   0.000
 58       -0.000  -0.000   0.000  -0.000
 59       -0.000  -0.000   0.000  -0.000
 60        0.000   0.000   0.000   0.000
[...]
 66       -0.000   0.000   0.000   0.000
 67       -0.000   0.000   0.000   0.000
 68        0.000  -0.000   0.000  -0.000
 69        0.000  -0.000   0.000  -0.000
 70       -0.000   0.000   0.000   0.000
 71       -0.000   0.000   0.000   0.000
 72        0.000  -0.000   0.000  -0.000
 73        0.000   0.001   0.000   0.001
 74       -0.000  -0.001   0.000  -0.001
 75       -0.000  -0.001   0.000  -0.001
 76        0.000   0.001   0.000   0.001
 77       -0.000  -0.000   0.000  -0.000
 78        0.000   0.000   0.000   0.000
 79        0.000   0.000   0.000   0.000
 80       -0.000  -0.000   0.000  -0.000
tot        0.000  -0.000  -0.000  -0.000