 vasp.6.3.0 20Jan22 (build Feb 18 2022 09:23:16) complex

 INCAR:
   AMIX = 0.1
   ISYM = -1
   IVDW = 11           (DFT-D3 method of method with no damping)
   ISPIN = 2 (Spin polarised DFT)
   ISTART = 1            (Read existing wavefunction
   ICHARG = 11         (Non-self-consistent: GGA/LDA band structures)
   LORBIT = 11
   LASPH = T
   GGA_COMPAT = .FALSE.
   LREAL = .FALSE.       (Projection operators: automatic)
   ENCUT = 850.0      (Cut-off energy for plane wave basis set, in eV)
   ENAUG = 1500.0
   PREC = Accurate     (Precision level)
   LMAXMIX = 4
   LWAVE = F
   LCHARG = F
   ADDGRID = .TRUE.        (Increase grid
   LPLANE = .TRUE.      (Real space distribution
   NWRITE = 2           (Medium-level output)
   KPAR = 2           (Divides k-grid into separate groups)
   NSW = 0          (number of ionic steps)
   ISMEAR = 0            (gaussian smearing method )
   SIGMA = 0.05         (please check the width of the smearing)
   IBRION = -1            (Algorithm: 0-MD
   POTIM = 0.1
   ISIF = 3            (optimize atomic coordinates and lattice parameters)
   EDIFFG = -0.005       (Ionic convergence
   EDIFF = 1.0d-10
   NELM = 50
   NELMIN = 6
   NELMDL = -8
   ALGO = Normal
   MAGMOM = 4 4 4 -4 -4 -4 36*0 18*0 42*0 6*0
   LCALCPOL = T

 POTCAR:    PAW_PBE Mn_pv 02Aug2007
 POTCAR:    PAW_PBE O 08Apr2002
 POTCAR:    PAW_PBE C 08Apr2002
 POTCAR:    PAW_PBE H 15Jun2001
 POTCAR:    PAW_PBE N 08Apr2002
|           W    W    AA    RRRRR   N    N  II  N    N   GGGG   !!!           |
|           W    W   A  A   R    R  NN   N  II  NN   N  G    G  !!!           |
|           W    W  A    A  R    R  N N  N  II  N N  N  G       !!!           |
|           W WW W  AAAAAA  RRRRR   N  N N  II  N  N N  G  GGG   !            |
|           WW  WW  A    A  R   R   N   NN  II  N   NN  G    G                |
|           W    W  A    A  R    R  N    N  II  N    N   GGGG   !!!           |
|     For optimal performance we recommend to set                             |
|       NCORE = 2 up to number-of-cores-per-socket                            |
|     This setting can greatly improve the performance of VASP for DFT.       |
|     The default, NCORE=1 might be grossly inefficient on modern             |
|     multi-core architectures or massively parallel machines. Do your        |
|     Unfortunately you need to use the default for GW and RPA                |
|     calculations (for HF NCORE is supported but not extensively tested      |
|     yet).                                                                   |

   TITEL  = PAW_PBE Mn_pv 02Aug2007
   POMASS =   54.938; ZVAL   =   13.000    mass and valenz
   ENMAX  =  269.864; ENMIN  =  202.398 eV

   TITEL  = PAW_PBE O 08Apr2002
   POMASS =   16.000; ZVAL   =    6.000    mass and valenz
   ENMAX  =  400.000; ENMIN  =  300.000 eV

[...]

   TITEL  = PAW_PBE H 15Jun2001
   POMASS =    1.000; ZVAL   =    1.000    mass and valenz
   ENMAX  =  250.000; ENMIN  =  200.000 eV

   TITEL  = PAW_PBE N 08Apr2002
   POMASS =   14.001; ZVAL   =    5.000    mass and valenz
   ENMAX  =  400.000; ENMIN  =  300.000 eV

  PAW_PBE Mn_pv 02Aug2007               :
  PAW_PBE O 08Apr2002                   :
  PAW_PBE C 08Apr2002                   :
  PAW_PBE H 15Jun2001                   :
  PAW_PBE N 08Apr2002                   :

 POSCAR: critic2 | Mn-110.cif
  positions in direct lattice
  velocities in cartesian coordinates
 exchange correlation table for  LEXCH =        8
   RHO(1)=    0.500       N(1)  =     2000
   RHO(2)=  100.500       N(2)  =     4000

 ion  position               nearest neighbor table
   1  0.337  0.329  0.588-   7 2.17  28 2.18  31 2.19  41 2.20  18 2.20  19 2.22
   2  0.671  0.008  0.588-   8 2.17  29 2.18  32 2.19  42 2.20  16 2.20  20 2.22
   3  0.992  0.663  0.588-   9 2.17  30 2.18  33 2.19  40 2.20  17 2.20  21 2.22
   4  0.663  0.671  0.088-  10 2.17  25 2.18  34 2.19  38 2.20  15 2.20  22 2.22
   5  0.329  0.992  0.088-  11 2.17  26 2.18  35 2.19  39 2.20  13 2.20  23 2.22
   6  0.008  0.337  0.088-  12 2.17  27 2.18  36 2.19  37 2.20  14 2.20  24 2.22
   7  0.425  0.256  0.442-  43 1.28   1 2.17
   8  0.744  0.169  0.442-  44 1.28   2 2.17
   9  0.831  0.575  0.442-  45 1.28   3 2.17
  10  0.575  0.744  0.942-  46 1.28   4 2.17
  11  0.256  0.831  0.942-  47 1.28   5 2.17
  12  0.169  0.425  0.942-  48 1.28   6 2.17
  13  0.434  0.158  0.230-  43 1.26   5 2.20
  14  0.842  0.276  0.230-  44 1.26   6 2.20
  15  0.724  0.566  0.230-  45 1.26   4 2.20
  16  0.566  0.842  0.730-  46 1.26   2 2.20
  17  0.158  0.724  0.730-  47 1.26   3 2.20
  18  0.276  0.434  0.730-  48 1.26   1 2.20
  19  0.399  0.491  0.437-  49 1.28   1 2.22
  20  0.509  0.908  0.437-  50 1.28   2 2.22
  21  0.092  0.601  0.437-  51 1.28   3 2.22
  22  0.601  0.509  0.937-  52 1.28   4 2.22
  23  0.491  0.092  0.937-  53 1.28   5 2.22
  24  0.908  0.399  0.937-  54 1.28   6 2.22
  25  0.498  0.603  0.228-  49 1.27   4 2.18
  26  0.397  0.894  0.228-  50 1.27   5 2.18
  27  0.106  0.502  0.228-  51 1.27   6 2.18
  28  0.502  0.397  0.728-  52 1.27   1 2.18
  29  0.603  0.106  0.728-  53 1.27   2 2.18
  30  0.894  0.498  0.728-  54 1.27   3 2.18
  31  0.166  0.229  0.455-  55 1.27   1 2.19
  32  0.771  0.938  0.455-  56 1.27   2 2.19
  33  0.062  0.834  0.454-  57 1.27   3 2.19
  34  0.834  0.771  0.955-  58 1.27   4 2.19
  35  0.229  0.062  0.955-  59 1.27   5 2.19
  36  0.938  0.166  0.954-  60 1.27   6 2.19
  37  0.072  0.242  0.242-  55 1.28   6 2.20
  38  0.758  0.830  0.242-  56 1.28   4 2.20
  39  0.170  0.928  0.242-  57 1.28   5 2.20
  40  0.928  0.758  0.742-  58 1.28   3 2.20
  41  0.242  0.170  0.742-  59 1.28   1 2.20
  42  0.830  0.072  0.742-  60 1.28   2 2.20
  43  0.377  0.190  0.322-  61 1.11  13 1.26   7 1.28
  44  0.810  0.187  0.322-  62 1.11  14 1.26   8 1.28
  45  0.813  0.623  0.322-  63 1.11  15 1.26   9 1.28
  46  0.623  0.810  0.822-  64 1.11  16 1.26  10 1.28
  47  0.190  0.813  0.822-  65 1.11  17 1.26  11 1.28
  48  0.187  0.377  0.822-  66 1.11  18 1.26  12 1.28
  49  0.465  0.512  0.316-  67 1.11  25 1.27  19 1.28
  50  0.488  0.953  0.316-  68 1.11  26 1.27  20 1.28
  51  0.047  0.535  0.316-  69 1.11  27 1.27  21 1.28
  52  0.535  0.488  0.816-  70 1.11  28 1.27  22 1.28
  53  0.512  0.047  0.816-  71 1.11  29 1.27  23 1.28
  54  0.953  0.465  0.816-  72 1.11  30 1.27  24 1.28
  55  0.132  0.286  0.366-  73 1.11  31 1.27  37 1.28
  56  0.714  0.846  0.366-  74 1.11  32 1.27  38 1.28
  57  0.154  0.868  0.366-  75 1.11  33 1.27  39 1.28
  58  0.868  0.714  0.866-  76 1.11  34 1.27  40 1.28
  59  0.286  0.154  0.866-  77 1.11  35 1.27  41 1.28
  60  0.846  0.132  0.866-  78 1.11  36 1.27  42 1.28
[...]
  94  0.667  0.333  0.148- 106 1.02
  95  0.030  0.090  0.186- 107 1.05
  96  0.910  0.940  0.186- 107 1.05
  97  0.060  0.970  0.186- 107 1.05
  98  0.970  0.910  0.686- 108 1.05
  99  0.090  0.060  0.686- 108 1.05
 100  0.940  0.030  0.686- 108 1.05
 101  0.000  1.000  0.030- 107 1.02
 102  1.000  0.000  0.530- 108 1.02
 103  0.667  0.333  0.535-  85 1.02  80 1.05  79 1.05  81 1.05
 104  0.333  0.667  0.035-  86 1.02  83 1.05  82 1.05  84 1.05
 105  0.333  0.667  0.531-  93 1.02  87 1.05  88 1.05  89 1.05
 106  0.667  0.333  0.031-  94 1.02  90 1.05  91 1.05  92 1.05
 107  1.000  0.000  0.147- 101 1.02  95 1.05  96 1.05  97 1.05
 108  0.000  1.000  0.647- 102 1.02  98 1.05  99 1.05 100 1.05

IMPORTANT INFORMATION: All symmetrisations will be switched off!
NOSYMM: (Re-)initialisation of all symmetry stuff for point group C_1.

                                     Primitive cell

  volume of cell :    1189.0981

  direct lattice vectors                    reciprocal lattice vectors
    12.553725422 -0.000003521  0.000000000     0.079657642  0.045990375 -0.000000000
    -6.276865505 10.871846549  0.000000000     0.000000026  0.091980710 -0.000000000
     0.000000000  0.000000000  8.712480297    -0.000000000 -0.000000000  0.114777878

  length of vectors
    12.553725422 12.553728050  8.712480297     0.091980729  0.091980710  0.114777878

  position of ions in fractional coordinates (direct lattice)
     0.336671716  0.328742151  0.588166739
     0.671257177  0.007929051  0.588166512
     0.992071197  0.663328724  0.588166043
     0.663328284  0.671257849  0.088166739
     0.328742823  0.992070949  0.088166512
     0.007928803  0.336671276  0.088166043
     0.424690044  0.255640900  0.441595911
     0.744358829  0.169047920  0.441597162
     0.830951203  0.575311040  0.441595916
     0.575309956  0.744359100  0.941595911
     0.255641171  0.830952080  0.941597162
     0.169048797  0.424688960  0.941595916
     0.433641358  0.157601444  0.230430806
     0.842397289  0.276038733  0.230430732
     0.723960978  0.566358908  0.230431463
     0.566358642  0.842398556  0.730430806
     0.157602711  0.723961267  0.730430732
     0.276039022  0.433641092  0.730431463
     0.399237656  0.491392121  0.436656821
     0.508609069  0.907845974  0.436656465
     0.092153111  0.600762685  0.436655683
     0.600762344  0.508607879  0.936656821
     0.491390931  0.092154026  0.936656465
     0.907846889  0.399237315  0.936655683
     0.497648195  0.603261312  0.228469213
     0.396738395  0.894387005  0.228467963
     0.105612401  0.502351265  0.228467451
     0.502351805  0.396738688  0.728469213
     0.603261605  0.105612995  0.728467963
     0.894387599  0.497648735  0.728467451
     0.166497435  0.228671809  0.454500666
     0.771328310  0.937826011  0.454500874
     0.062175338  0.833503460  0.454499355
     0.833502565  0.771328191  0.954500666
     0.228671690  0.062173989  0.954500874
     0.937824662  0.166496540  0.954499355
     0.072218746  0.241791768  0.242052377
     0.758208116  0.830427059  0.242053345
     0.169573240  0.927780322  0.242054259
     0.927781254  0.758208232  0.742052377
     0.241791884  0.169572941  0.742053345
     0.830426760  0.072219678  0.742054259
     0.376767259  0.189562246  0.322296078
     0.810437773  0.187203305  0.322295513
     0.812795528  0.623233023  0.322296630
     0.623232741  0.810437754  0.822296078
     0.189562227  0.812796695  0.822295513
     0.187204472  0.376766977  0.822296630
     0.464725776  0.511783358  0.316418230
     0.488216457  0.952942103  0.316417290
     0.047058620  0.535274744  0.316418666
     0.535274224  0.488216642  0.816418230
     0.511783543  0.047057897  0.816417290
     0.952941380  0.464725256  0.816418666
     0.132371067  0.285958731  0.366161540
     0.714041778  0.846412479  0.366161068
     0.153587720  0.867630111  0.366159870
     0.867628933  0.714041269  0.866161540
     0.285958222  0.153587521  0.866161068
     0.846412280  0.132369889  0.866159870
[...]
     0.666666941  0.333333021  0.147951892
     0.029677891  0.089798761  0.185576759
     0.910201281  0.939879122  0.185577163
     0.060121451  0.970322309  0.185577427
     0.970322109  0.910201239  0.685576759
     0.089798719  0.060120878  0.685577163
     0.939878549  0.029677691  0.685577427
     0.000000063  0.999999730  0.029949120
     0.999999937  0.000000270  0.529949120
     0.666667067  0.333333113  0.534615865
     0.333332933  0.666666887  0.034615865
[...]
   0.140E+03 0.230E+02 -.444E+02   -.148E+03 -.458E+02 0.776E+02   0.759E+01 0.227E+02 -.332E+02   -.124E-01 0.737E-02 0.460E-02
   0.174E+03 -.594E+02 0.262E+02   -.185E+03 0.940E+02 -.507E+02   0.114E+02 -.346E+02 0.245E+02   0.797E-03 0.366E-02 -.509E-02
   -.356E+02 0.180E+03 0.262E+02   0.113E+02 -.207E+03 -.507E+02   0.242E+02 0.272E+02 0.245E+02   0.118E-01 -.251E-02 0.339E-02
   -.138E+03 -.121E+03 0.262E+02   0.174E+03 0.113E+03 -.507E+02   -.357E+02 0.741E+01 0.245E+02   0.427E-02 0.102E-02 0.101E-01
   -.174E+03 0.594E+02 0.262E+02   0.185E+03 -.940E+02 -.507E+02   -.114E+02 0.346E+02 0.245E+02   -.137E-02 -.309E-02 -.505E-02
   0.356E+02 -.180E+03 0.262E+02   -.113E+02 0.207E+03 -.507E+02   -.242E+02 -.272E+02 0.245E+02   -.129E-01 0.244E-02 0.307E-02
   0.138E+03 0.121E+03 0.262E+02   -.174E+03 -.113E+03 -.507E+02   0.357E+02 -.741E+01 0.245E+02   -.582E-02 -.565E-03 0.107E-01
   0.348E+02 0.179E+03 -.286E+02   -.101E+02 -.206E+03 0.535E+02   -.246E+02 0.265E+02 -.249E+02   0.513E-02 0.842E-03 -.976E-02
   -.173E+03 -.595E+02 -.286E+02   0.183E+03 0.941E+02 0.535E+02   -.106E+02 -.346E+02 -.249E+02   0.588E-02 -.781E-02 -.685E-02
   0.138E+03 -.120E+03 -.286E+02   -.173E+03 0.112E+03 0.535E+02   0.353E+02 0.807E+01 -.249E+02   -.734E-02 0.706E-03 0.136E-01
   -.348E+02 -.179E+03 -.286E+02   0.101E+02 0.206E+03 0.535E+02   0.246E+02 -.265E+02 -.249E+02   -.638E-02 -.222E-03 -.997E-02
   0.173E+03 0.595E+02 -.286E+02   -.183E+03 -.941E+02 0.535E+02   0.106E+02 0.346E+02 -.249E+02   -.651E-02 0.804E-02 -.685E-02
   -.138E+03 0.120E+03 -.286E+02   0.173E+03 -.112E+03 0.535E+02   -.353E+02 -.807E+01 -.249E+02   0.574E-02 -.221E-03 0.138E-01
   -.617E+02 0.125E+03 0.474E+02   0.483E+02 -.142E+03 -.815E+02   0.133E+02 0.175E+02 0.341E+02   0.312E-02 0.264E-02 0.168E-01
   -.773E+02 -.116E+03 0.474E+02   0.992E+02 0.113E+03 -.815E+02   -.218E+02 0.275E+01 0.341E+02   -.347E-02 0.982E-03 0.448E-02
   0.139E+03 -.907E+01 0.474E+02   -.148E+03 0.294E+02 -.815E+02   0.853E+01 -.203E+02 0.341E+02   -.982E-02 0.139E-01 -.940E-02
   0.617E+02 -.125E+03 0.474E+02   -.483E+02 0.142E+03 -.815E+02   -.133E+02 -.175E+02 0.341E+02   -.393E-02 -.262E-02 0.166E-01
   0.773E+02 0.116E+03 0.474E+02   -.992E+02 -.113E+03 -.815E+02   0.218E+02 -.275E+01 0.341E+02   0.250E-02 -.969E-03 0.567E-02
   -.139E+03 0.907E+01 0.474E+02   0.148E+03 -.294E+02 -.815E+02   -.853E+01 0.203E+02 0.341E+02   0.907E-02 -.136E-01 -.940E-02
   0.983E+02 0.177E+02 0.240E+02   -.105E+03 -.201E+02 -.255E+02   0.657E+01 0.237E+01 0.151E+01   -.434E-02 0.411E-02 0.105E-03
   -.645E+02 0.763E+02 0.240E+02   0.699E+02 -.808E+02 -.255E+02   -.534E+01 0.450E+01 0.151E+01   -.289E-03 0.521E-02 -.684E-03
   -.338E+02 -.940E+02 0.240E+02   0.351E+02 0.101E+03 -.255E+02   -.123E+01 -.687E+01 0.151E+01   -.181E-02 -.184E-03 -.292E-02
   -.983E+02 -.177E+02 0.240E+02   0.105E+03 0.201E+02 -.255E+02   -.657E+01 -.237E+01 0.151E+01   0.385E-02 -.406E-02 0.731E-03
   0.645E+02 -.763E+02 0.240E+02   -.699E+02 0.808E+02 -.255E+02   0.534E+01 -.450E+01 0.151E+01   -.241E-04 -.477E-02 -.573E-04
   0.338E+02 0.940E+02 0.240E+02   -.351E+02 -.101E+03 -.255E+02   0.123E+01 0.687E+01 0.151E+01   0.181E-02 0.293E-03 -.408E-02
   -.649E+02 0.843E+02 0.352E+02   0.701E+02 -.888E+02 -.369E+02   -.513E+01 0.446E+01 0.168E+01   -.280E-02 -.150E-02 0.732E-04
   -.406E+02 -.984E+02 0.352E+02   0.419E+02 0.105E+03 -.369E+02   -.130E+01 -.668E+01 0.168E+01   0.372E-02 -.123E-02 0.319E-02
   0.105E+03 0.141E+02 0.352E+02   -.112E+03 -.163E+02 -.369E+02   0.643E+01 0.222E+01 0.168E+01   0.199E-02 -.398E-02 -.130E-02
   0.649E+02 -.843E+02 0.352E+02   -.701E+02 0.888E+02 -.369E+02   0.513E+01 -.446E+01 0.168E+01   0.248E-02 0.208E-02 0.841E-03
   0.406E+02 0.984E+02 0.352E+02   -.419E+02 -.105E+03 -.369E+02   0.130E+01 0.668E+01 0.168E+01   -.370E-02 0.131E-02 0.209E-02
   -.105E+03 -.141E+02 0.352E+02   0.112E+03 0.163E+02 -.369E+02   -.643E+01 -.222E+01 0.168E+01   -.254E-02 0.399E-02 -.592E-03
   0.494E+02 -.970E+02 -.392E+02   -.510E+02 0.104E+03 0.410E+02   0.166E+01 -.655E+01 -.189E+01   0.948E-03 -.137E-02 -.218E-02
   0.593E+02 0.913E+02 -.392E+02   -.642E+02 -.960E+02 0.410E+02   0.485E+01 0.471E+01 -.189E+01   0.500E-03 0.714E-03 -.224E-03
   -.109E+03 0.575E+01 -.392E+02   0.115E+03 -.759E+01 0.411E+02   -.650E+01 0.184E+01 -.189E+01   -.118E-02 0.303E-03 0.363E-02
   -.494E+02 0.970E+02 -.392E+02   0.510E+02 -.104E+03 0.410E+02   -.166E+01 0.655E+01 -.189E+01   -.102E-02 0.148E-02 -.288E-02
   -.593E+02 -.913E+02 -.392E+02   0.642E+02 0.960E+02 0.410E+02   -.485E+01 -.471E+01 -.189E+01   -.933E-03 -.737E-03 0.284E-03
   0.109E+03 -.575E+01 -.392E+02   -.115E+03 0.759E+01 0.411E+02   0.650E+01 -.184E+01 -.189E+01   0.886E-03 0.489E-05 0.418E-02
[...]
   0.157E+01 -.296E+02 -.135E+02   -.282E+01 0.359E+02 0.156E+02   0.125E+01 -.632E+01 -.212E+01   0.155E-03 0.112E-04 0.206E-03
   0.248E+02 0.161E+02 -.135E+02   -.297E+02 -.204E+02 0.156E+02   0.485E+01 0.424E+01 -.212E+01   -.331E-04 0.147E-03 -.297E-04
   -.264E+02 0.134E+02 -.135E+02   0.325E+02 -.155E+02 0.156E+02   -.610E+01 0.207E+01 -.212E+01   -.444E-04 0.382E-03 -.356E-04
   -.157E+01 0.296E+02 -.135E+02   0.282E+01 -.359E+02 0.156E+02   -.125E+01 0.632E+01 -.212E+01   -.199E-03 -.389E-05 0.252E-03
   -.248E+02 -.161E+02 -.135E+02   0.297E+02 0.204E+02 0.156E+02   -.485E+01 -.424E+01 -.212E+01   -.510E-04 -.145E-03 0.200E-05
   0.264E+02 -.134E+02 -.135E+02   -.325E+02 0.155E+02 0.156E+02   0.610E+01 -.207E+01 -.212E+01   0.180E-03 -.392E-03 -.116E-03
   -.464E-03 0.279E-03 0.618E+02   0.510E-03 -.346E-03 -.693E+02   -.569E-04 0.350E-04 0.748E+01   0.859E-05 -.527E-05 -.407E-04
   0.496E-03 -.296E-03 0.618E+02   -.510E-03 0.346E-03 -.693E+02   0.679E-04 -.422E-04 0.748E+01   -.385E-04 0.250E-04 0.125E-05
   0.321E-02 -.370E-02 0.536E+00   0.469E-04 0.709E-03 -.355E+01   0.551E-03 -.394E-03 0.301E+01   -.356E-02 0.332E-02 -.717E-03
   -.258E-02 0.328E-02 0.536E+00   -.469E-04 -.709E-03 -.355E+01   -.381E-03 0.241E-03 0.301E+01   0.286E-02 -.282E-02 -.771E-03
   -.179E-02 0.481E-02 -.124E+02   -.883E-03 -.125E-02 0.905E+01   -.691E-03 0.886E-03 0.331E+01   0.276E-02 -.418E-02 -.204E-02
   0.242E-02 -.519E-02 -.124E+02   0.883E-03 0.125E-02 0.905E+01   0.856E-03 -.100E-02 0.331E+01   -.345E-02 0.462E-02 -.205E-02
   -.136E-02 -.186E-03 0.469E+01   0.147E-02 -.492E-03 -.161E+01   0.312E-03 -.425E-03 -.308E+01   0.128E-03 0.771E-03 -.250E-03
   0.171E-02 0.781E-04 0.469E+01   -.147E-02 0.492E-03 -.161E+01   -.234E-03 0.432E-03 -.308E+01   -.513E-03 -.676E-03 -.101E-03
   0.246E-01 -.924E-02 0.186E+02   -.749E-13 -.606E-12 -.599E-12   0.916E-02 -.362E-02 -.186E+02   -.328E-01 0.126E-01 -.616E-01

 POSITION                                       TOTAL-FORCE (eV/Angst)
      2.16301      3.57403      5.12439        -0.002480      0.000074     -0.000386
      8.37701      0.08620      5.12439         0.001402     -0.001775     -0.000628
      8.29056      7.21160      5.12439         0.001109      0.001480      0.000498
      4.11385      7.29781      0.76815         0.002400     -0.000054     -0.000377
     -2.10015     10.78564      0.76815        -0.001478      0.001805     -0.000643
     -2.01370      3.66024      0.76814        -0.001185     -0.001454      0.000496
      3.72682      2.77929      3.84740         0.002006      0.003302      0.002208
      8.28339      1.83786      3.84741        -0.003564     -0.000719      0.002600
      6.82038      6.25469      3.84740         0.002028     -0.002908      0.002510
      2.55004      8.09256      8.20364        -0.001995     -0.003323      0.002178
     -2.00653      9.03398      8.20365         0.003608      0.000698      0.002559
     -0.54352      4.61715      8.20364        -0.001967      0.002887      0.002580
      4.45457      1.71342      2.00762         0.001674     -0.000732     -0.000207
      8.84257      3.00105      2.00762        -0.000947      0.000454     -0.000420
      5.53345      6.15736      2.00763        -0.000271     -0.001009      0.000017
      1.82229      9.15843      6.36386        -0.001669      0.000735     -0.000307
     -2.56571      7.87080      6.36386         0.000964     -0.000471     -0.000426
      0.74341      4.71448      6.36387         0.000290      0.000995      0.000087
      1.92752      5.34234      3.80436        -0.000433     -0.001207      0.001702
      0.68651      9.86996      3.80436         0.001670     -0.000100      0.001154
     -2.61404      6.53140      3.80435        -0.000812      0.002378      0.001810
      4.34934      5.52950      8.16060         0.000464      0.001187      0.001625
      5.59035      1.00188      8.16060        -0.001613      0.000085      0.001225
      8.89090      4.34044      8.16059         0.000816     -0.002392      0.001779
      2.46075      6.55856      1.99053         0.000686      0.000526     -0.001576
     -0.63340      9.72364      1.99052        -0.001520      0.000210     -0.001756
     -1.82736      5.46149      1.99052         0.000246     -0.000588     -0.001618
      3.81611      4.31328      6.34677        -0.000684     -0.000527     -0.001563
      6.91026      1.14821      6.34676         0.001542     -0.000213     -0.001711
      8.10422      5.41036      6.34676        -0.000229      0.000584     -0.001702
      0.65482      2.48608      3.95983        -0.000895     -0.000173      0.000331
      3.79644     10.19590      3.95983         0.000156     -0.000052      0.000201
     -4.45126      9.06172      3.95982         0.000362      0.000491     -0.000603
      5.62204      8.38576      8.31607         0.000960      0.000134      0.000353
      2.48042      0.67595      8.31607        -0.000157      0.000023      0.000194
     10.72812      1.81012      8.31606        -0.000314     -0.000505     -0.000630
     -0.61108      2.62872      2.10888        -0.000160     -0.001048      0.000323
      4.30586      9.02827      2.10889         0.001063      0.000458      0.000898
     -3.69478     10.08668      2.10889        -0.000696      0.000343      0.000771
      6.88794      8.24312      6.46512         0.000171      0.001018      0.000379
      1.97100      1.84357      6.46513        -0.001049     -0.000441      0.000781
      9.97164      0.78516      6.46513         0.000712     -0.000349      0.000786
      3.53998      2.06089      2.80800        -0.000301      0.001767      0.000223
      8.99896      2.03524      2.80799        -0.002132      0.000195     -0.000123
      6.29166      6.77569      2.80800         0.001032     -0.000912     -0.000587
      2.73688      8.81095      7.16424         0.000292     -0.001787      0.000273
     -2.72210      8.83660      7.16423         0.002109     -0.000151     -0.000083
     -0.01480      4.09615      7.16424        -0.000984      0.000935     -0.000662
      2.62164      5.56403      2.75679        -0.001708      0.001824      0.000983
      0.14745     10.36024      2.75678        -0.000206     -0.001686      0.001399
     -2.76909      5.81942      2.75679         0.001387     -0.000549     -0.000199
      3.65522      5.30781      7.11303         0.001704     -0.001783      0.001038
      6.12941      0.51160      7.11302         0.000244      0.001706      0.001332
      9.04595      5.05242      7.11303        -0.001396      0.000536     -0.000153
     -0.13317      3.10890      3.19018        -0.000681      0.000398     -0.001242
      3.65107      9.20206      3.19017        -0.000227     -0.001127     -0.001144
     -3.51790      9.43274      3.19016         0.001407     -0.000112     -0.000324
      6.41003      7.76294      7.54642         0.000675     -0.000365     -0.001282
      2.62579      1.66978      7.54641         0.000226      0.001121     -0.001100
      9.79476      1.43910      7.54640        -0.001457      0.000136     -0.000301
[...]
      6.27687      3.62394      1.28903         0.000110     -0.000055     -0.003497
     -0.19109      0.97628      1.61683         0.000099      0.000437      0.000460
      5.52692     10.21822      1.61684        -0.000324      0.000011      0.000345
     -5.33583     10.54920      1.61684        -0.000408     -0.000026      0.000156
      6.46795      9.89556      5.97307        -0.000107     -0.000451      0.000468
      0.74994      0.65362      5.97308         0.000309     -0.000007      0.000347
     11.61269      0.32265      5.97308         0.000401      0.000031      0.000152
     -6.27686     10.87184      0.26093        -0.000012     -0.000035      0.000307
     12.55372     -0.00000      4.61717         0.000007      0.000035      0.000292
      6.27687      3.62394      4.65783         0.000247     -0.000061     -0.002049
     -0.00001      7.24790      0.30159        -0.000159     -0.000003     -0.002031
     -0.00000      7.24790      4.62205        -0.000617      0.000269      0.004215
      6.27686      3.62394      0.26581         0.000701     -0.000321      0.004231
     12.55372     -0.00000      1.28358         0.000538     -0.000329      0.001205
     -6.27686     10.87184      5.63982        -0.000510      0.000329      0.001200
    total drift:                                0.000959     -0.000291     -0.001081

  FREE ENERGIE OF THE ION-ELECTRON SYSTEM (eV)
  free  energy   TOTEN  =      -692.00497631 eV

  energy  without entropy=     -692.00497631  energy(sigma->0) =     -692.00497631

 total charge

[...]

 magnetization (x)

# of ion       s       p       d       tot
    1        0.021   0.020   4.462   4.503
    2        0.021   0.020   4.462   4.503
    3        0.021   0.020   4.462   4.503
    4       -0.021  -0.020  -4.462  -4.503
    5       -0.021  -0.020  -4.462  -4.503
    6       -0.021  -0.020  -4.462  -4.503
    7        0.004   0.014   0.000   0.018
    8        0.004   0.014   0.000   0.018
    9        0.004   0.014   0.000   0.018
   10       -0.004  -0.014   0.000  -0.018
   11       -0.004  -0.014   0.000  -0.018
   12       -0.004  -0.014   0.000  -0.018
   13       -0.004  -0.013   0.000  -0.017
   14       -0.004  -0.013   0.000  -0.017
   15       -0.004  -0.013   0.000  -0.017
   16        0.004   0.013   0.000   0.017
   17        0.004   0.013   0.000   0.017
   18        0.004   0.013   0.000   0.017
   19        0.004   0.013   0.000   0.017
   20        0.004   0.013   0.000   0.017
   21        0.004   0.013   0.000   0.017
   22       -0.004  -0.013   0.000  -0.017
   23       -0.004  -0.013   0.000  -0.017
   24       -0.004  -0.013   0.000  -0.017
   25       -0.004  -0.015   0.000  -0.018
   26       -0.004  -0.015   0.000  -0.018
   27       -0.004  -0.015   0.000  -0.018
   28        0.004   0.015   0.000   0.018
   29        0.004   0.015   0.000   0.018
   30        0.004   0.015   0.000   0.018
   31        0.004   0.014   0.000   0.017
   32        0.004   0.014   0.000   0.017
   33        0.004   0.014   0.000   0.017
   34       -0.004  -0.014   0.000  -0.017
   35       -0.004  -0.014   0.000  -0.017
   36       -0.004  -0.014   0.000  -0.017
   37       -0.004  -0.013   0.000  -0.017
   38       -0.004  -0.013   0.000  -0.017
   39       -0.004  -0.013   0.000  -0.017
   40        0.004   0.013   0.000   0.017
   41        0.004   0.013   0.000   0.017
   42        0.004   0.013   0.000   0.017
   43       -0.000  -0.002   0.000  -0.002
   44       -0.000  -0.002   0.000  -0.002
   45       -0.000  -0.002   0.000  -0.002
   46        0.000   0.002   0.000   0.002
   47        0.000   0.002   0.000   0.002
   48        0.000   0.002   0.000   0.002
   49       -0.000  -0.003   0.000  -0.003
   50       -0.000  -0.003   0.000  -0.003
   51       -0.000  -0.003   0.000  -0.003
   52        0.000   0.003   0.000   0.003
   53        0.000   0.003   0.000   0.003
   54        0.000   0.003   0.000   0.003
   55        0.000   0.003   0.000   0.004
   56        0.000   0.003   0.000   0.004
   57        0.000   0.003   0.000   0.004
   58       -0.000  -0.003   0.000  -0.004
   59       -0.000  -0.003   0.000  -0.004
   60       -0.000  -0.003   0.000  -0.004
[...]
   94        0.000  -0.000   0.000  -0.000
   95       -0.000  -0.000   0.000  -0.000
   96       -0.000  -0.000   0.000  -0.000
   97       -0.000  -0.000   0.000  -0.000
   98        0.000   0.000   0.000   0.000
   99        0.000   0.000   0.000   0.000
  100        0.000   0.000   0.000   0.000
  101        0.000  -0.000   0.000  -0.000
  102       -0.000   0.000   0.000   0.000
  103        0.000   0.001   0.000   0.001
  104       -0.000  -0.001   0.000  -0.001
  105        0.000   0.001   0.000   0.001
  106       -0.000  -0.001   0.000  -0.001
  107       -0.000  -0.001   0.000  -0.001
  108        0.000   0.001   0.000   0.001
tot         -0.000   0.000  -0.000   0.000