 vasp.6.3.0 20Jan22 (build Feb 18 2022 09:23:16) complex

 INCAR:
   AMIX = 0.1
   SYMPREC = 1.0d-3
   IVDW = 11           (DFT-D3 method of method with no damping)
   ISPIN = 2 (Spin polarised DFT)
   ISTART = 1            (Read existing wavefunction
   ICHARG = 11         (Non-self-consistent: GGA/LDA band structures)
   LORBIT = 11
   LASPH = T
   GGA_COMPAT = .FALSE.
   LREAL = .FALSE.       (Projection operators: automatic)
   ENCUT = 850.0      (Cut-off energy for plane wave basis set, in eV)
   ENAUG = 1500.0
   PREC = Accurate     (Precision level)
   LMAXMIX = 4
   LWAVE = F
   LCHARG = F
   ADDGRID = .TRUE.        (Increase grid
   LPLANE = .TRUE.      (Real space distribution
   NWRITE = 2           (Medium-level output)
   KPAR = 2           (Divides k-grid into separate groups)
   NSW = 0          (number of ionic steps)
   ISMEAR = 0            (gaussian smearing method )
   SIGMA = 0.05         (please check the width of the smearing)
   IBRION = 2            (Algorithm: 0-MD
   POTIM = 0.1
   ISIF = 3            (optimize atomic coordinates and lattice parameters)
   EDIFFG = -0.005       (Ionic convergence
   EDIFF = 1.0d-8
   NELM = 50
   NELMIN = 6
   NELMDL = -8
   ALGO = Normal
   MAGMOM = 4 4 4 -4 -4 -4 36*0 18*0 42*0 6*0
   LCALCPOL = T

 POTCAR:    PAW_PBE Ni 02Aug2007
 POTCAR:    PAW_PBE O 08Apr2002
 POTCAR:    PAW_PBE C 08Apr2002
 POTCAR:    PAW_PBE H 15Jun2001
 POTCAR:    PAW_PBE N 08Apr2002
|           W    W    AA    RRRRR   N    N  II  N    N   GGGG   !!!           |
|           W    W   A  A   R    R  NN   N  II  NN   N  G    G  !!!           |
|           W    W  A    A  R    R  N N  N  II  N N  N  G       !!!           |
|           W WW W  AAAAAA  RRRRR   N  N N  II  N  N N  G  GGG   !            |
|           WW  WW  A    A  R   R   N   NN  II  N   NN  G    G                |
|           W    W  A    A  R    R  N    N  II  N    N   GGGG   !!!           |
|     For optimal performance we recommend to set                             |
|       NCORE = 2 up to number-of-cores-per-socket                            |
|     This setting can greatly improve the performance of VASP for DFT.       |
|     The default, NCORE=1 might be grossly inefficient on modern             |
|     multi-core architectures or massively parallel machines. Do your        |
|     Unfortunately you need to use the default for GW and RPA                |
|     calculations (for HF NCORE is supported but not extensively tested      |
|     yet).                                                                   |

   TITEL  = PAW_PBE Ni 02Aug2007
   POMASS =   58.690; ZVAL   =   10.000    mass and valenz
   ENMAX  =  269.532; ENMIN  =  202.149 eV

   TITEL  = PAW_PBE O 08Apr2002
   POMASS =   16.000; ZVAL   =    6.000    mass and valenz
   ENMAX  =  400.000; ENMIN  =  300.000 eV

[...]

   TITEL  = PAW_PBE H 15Jun2001
   POMASS =    1.000; ZVAL   =    1.000    mass and valenz
   ENMAX  =  250.000; ENMIN  =  200.000 eV

   TITEL  = PAW_PBE N 08Apr2002
   POMASS =   14.001; ZVAL   =    5.000    mass and valenz
   ENMAX  =  400.000; ENMIN  =  300.000 eV

  PAW_PBE Ni 02Aug2007                  :
  PAW_PBE O 08Apr2002                   :
  PAW_PBE C 08Apr2002                   :
  PAW_PBE H 15Jun2001                   :
  PAW_PBE N 08Apr2002                   :

 POSCAR: crystal
  positions in direct lattice
  velocities in cartesian coordinates
 exchange correlation table for  LEXCH =        8
   RHO(1)=    0.500       N(1)  =     2000
   RHO(2)=  100.500       N(2)  =     4000

 ion  position               nearest neighbor table
   1  0.335  0.332  0.587-  18 2.09   7 2.09  31 2.09  28 2.10  41 2.10  19 2.10
   2  0.668  0.003  0.587-  16 2.09   8 2.09  32 2.09  29 2.10  42 2.10  20 2.10
   3  0.997  0.665  0.587-  17 2.09   9 2.09  33 2.09  30 2.10  40 2.10  21 2.10
   4  0.665  0.668  0.087-  15 2.09  10 2.09  34 2.09  25 2.10  38 2.10  22 2.10
   5  0.332  0.997  0.087-  13 2.09  11 2.09  35 2.09  26 2.10  39 2.10  23 2.10
   6  0.003  0.335  0.087-  14 2.09  12 2.09  36 2.09  27 2.10  37 2.10  24 2.10
   7  0.425  0.263  0.444-  43 1.28   1 2.09
   8  0.737  0.162  0.444-  44 1.28   2 2.09
   9  0.838  0.575  0.444-  45 1.28   3 2.09
  10  0.575  0.737  0.944-  46 1.28   4 2.09
  11  0.263  0.838  0.944-  47 1.28   5 2.09
  12  0.162  0.425  0.944-  48 1.28   6 2.09
  13  0.427  0.153  0.231-  43 1.27   5 2.09
  14  0.847  0.273  0.231-  44 1.27   6 2.09
  15  0.727  0.573  0.231-  45 1.27   4 2.09
  16  0.573  0.847  0.731-  46 1.27   2 2.09
  17  0.153  0.727  0.731-  47 1.27   3 2.09
  18  0.273  0.427  0.731-  48 1.27   1 2.09
  19  0.401  0.491  0.443-  49 1.28   1 2.10
  20  0.509  0.910  0.443-  50 1.28   2 2.10
  21  0.090  0.599  0.443-  51 1.28   3 2.10
  22  0.599  0.509  0.943-  52 1.28   4 2.10
  23  0.491  0.090  0.943-  53 1.28   5 2.10
  24  0.910  0.401  0.943-  54 1.28   6 2.10
  25  0.506  0.604  0.229-  49 1.27   4 2.10
  26  0.396  0.902  0.229-  50 1.27   5 2.10
  27  0.098  0.494  0.229-  51 1.27   6 2.10
  28  0.494  0.396  0.729-  52 1.27   1 2.10
  29  0.604  0.098  0.729-  53 1.27   2 2.10
  30  0.902  0.506  0.729-  54 1.27   3 2.10
  31  0.176  0.238  0.445-  55 1.27   1 2.09
  32  0.762  0.938  0.445-  56 1.27   2 2.09
  33  0.062  0.824  0.445-  57 1.27   3 2.09
  34  0.824  0.762  0.945-  58 1.27   4 2.09
  35  0.238  0.062  0.945-  59 1.27   5 2.09
  36  0.938  0.176  0.945-  60 1.27   6 2.09
  37  0.070  0.243  0.230-  55 1.28   6 2.10
  38  0.757  0.827  0.230-  56 1.28   4 2.10
  39  0.173  0.930  0.230-  57 1.28   5 2.10
  40  0.930  0.757  0.730-  58 1.28   3 2.10
  41  0.243  0.173  0.730-  59 1.28   1 2.10
  42  0.827  0.070  0.730-  60 1.28   2 2.10
  43  0.370  0.183  0.332-  61 1.10  13 1.27   7 1.28
  44  0.817  0.187  0.332-  62 1.10  14 1.27   8 1.28
  45  0.813  0.630  0.332-  63 1.10  15 1.27   9 1.28
  46  0.630  0.817  0.832-  64 1.10  16 1.27  10 1.28
  47  0.183  0.813  0.832-  65 1.10  17 1.27  11 1.28
  48  0.187  0.370  0.832-  66 1.10  18 1.27  12 1.28
  49  0.475  0.514  0.325-  67 1.10  25 1.27  19 1.28
  50  0.486  0.961  0.325-  68 1.10  26 1.27  20 1.28
  51  0.039  0.525  0.325-  69 1.10  27 1.27  21 1.28
  52  0.525  0.486  0.825-  70 1.10  28 1.27  22 1.28
  53  0.514  0.039  0.825-  71 1.10  29 1.27  23 1.28
  54  0.961  0.475  0.825-  72 1.10  30 1.27  24 1.28
  55  0.145  0.295  0.347-  73 1.10  31 1.27  37 1.28
  56  0.705  0.850  0.347-  74 1.10  32 1.27  38 1.28
  57  0.150  0.855  0.347-  75 1.10  33 1.27  39 1.28
  58  0.855  0.705  0.847-  76 1.10  34 1.27  40 1.28
  59  0.295  0.150  0.847-  77 1.10  35 1.27  41 1.28
  60  0.850  0.145  0.847-  78 1.10  36 1.27  42 1.28
[...]
  94  0.667  0.333  0.162- 106 1.02
  95  0.026  0.089  0.174- 107 1.05
  96  0.911  0.937  0.174- 107 1.05
  97  0.063  0.974  0.174- 107 1.05
  98  0.974  0.911  0.674- 108 1.05
  99  0.089  0.063  0.674- 108 1.05
 100  0.937  0.026  0.674- 108 1.05
 101  0.000  0.000  0.011- 107 1.02
 102  0.000  0.000  0.511- 108 1.02
 103  0.667  0.333  0.539-  85 1.02  80 1.05  81 1.05  79 1.05
 104  0.333  0.667  0.039-  86 1.02  83 1.05  84 1.05  82 1.05
 105  0.333  0.667  0.538-  93 1.02  89 1.05  88 1.05  87 1.05
 106  0.667  0.333  0.038-  94 1.02  92 1.05  91 1.05  90 1.05
 107  0.000  0.000  0.135- 101 1.02  97 1.05  96 1.05  95 1.05
 108  0.000  0.000  0.635- 102 1.02 100 1.05  99 1.05  98 1.05

  LATTYP: Found a hexagonal cell.
 ALAT       =    12.5319501838
 C/A-ratio  =     0.6584926866

  Lattice vectors:

 A1 = (  12.5319501826,  -0.0001670422,   0.0000000000)
 A2 = (  -6.2658304285,  10.8530707382,  -0.0000000000)
 A3 = (  -0.0000000000,  -0.0000000000,   8.2521975450)

Analysis of symmetry for initial positions (statically):
 Subroutine PRICEL returns:
 Original cell was already a primitive cell.

 Routine SETGRP: Setting up the symmetry group for a
 hexagonal supercell.

 Subroutine GETGRP returns: Found  6 space group operations
 (whereof  3 operations were pure point group operations)
 out of a pool of 24 trial point group operations.

The static configuration has the point symmetry C_3 .
 The point group associated with its full space group is C_6 .

Analysis of symmetry for dynamics (positions and initial velocities):
 Subroutine PRICEL returns:
 Original cell was already a primitive cell.

[...]

The dynamic configuration has the point symmetry C_3 .
 The point group associated with its full space group is C_6 .

Analysis of structural, dynamic, and magnetic symmetry:
 Subroutine PRICEL returns:
 Original cell was already a primitive cell.

 Routine SETGRP: Setting up the symmetry group for a
 hexagonal supercell.

 Subroutine GETGRP returns: Found  6 space group operations
 (whereof  3 operations were pure point group operations)
 out of a pool of 24 trial point group operations.

The overall configuration has the point symmetry C_3 .
 The point group associated with its full space group is C_6 .

 Subroutine INISYM returns: Found  6 space group operations
 (whereof  3 operations are pure point group operations),
 and found     1 'primitive' translations

                                     Primitive cell

  volume of cell :    1122.3739

  direct lattice vectors                    reciprocal lattice vectors
    12.531950183 -0.000167042  0.000000000     0.079796654  0.046069202  0.000000000
    -6.265830429 10.853070738 -0.000000000     0.000001228  0.092140531  0.000000000
    -0.000000000 -0.000000000  8.252197545     0.000000000  0.000000000  0.121179843

  length of vectors
    12.531950184 12.531950184  8.252197545     0.092140531  0.092140531  0.121179843

  position of ions in fractional coordinates (direct lattice)
     0.334870747  0.331789962  0.586596969
     0.668210038  0.003080784  0.586596969
     0.996919216  0.665129253  0.586596969
     0.665129253  0.668210038  0.086596969
     0.331789962  0.996919216  0.086596969
     0.003080784  0.334870747  0.086596969
     0.424546673  0.262942194  0.443718102
     0.737057806  0.161604479  0.443718102
     0.838395521  0.575453327  0.443718102
     0.575453327  0.737057806  0.943718102
     0.262942194  0.838395521  0.943718102
     0.161604479  0.424546673  0.943718102
     0.426727266  0.153268061  0.231388011
     0.846731939  0.273459205  0.231388011
     0.726540795  0.573272734  0.231388011
     0.573272734  0.846731939  0.731388011
     0.153268061  0.726540795  0.731388011
     0.273459205  0.426727266  0.731388011
     0.401036179  0.490738442  0.443270047
     0.509261558  0.910297737  0.443270047
     0.089702263  0.598963821  0.443270047
     0.598963821  0.509261558  0.943270047
     0.490738442  0.089702263  0.943270047
     0.910297737  0.401036179  0.943270047
     0.506410640  0.603920972  0.229351647
     0.396079028  0.902489668  0.229351647
     0.097510332  0.493589360  0.229351647
     0.493589360  0.396079028  0.729351647
     0.603920972  0.097510332  0.729351647
     0.902489668  0.506410640  0.729351647
     0.175980777  0.237884299  0.445209222
     0.762115701  0.938096478  0.445209222
     0.061903522  0.824019223  0.445209222
     0.824019223  0.762115701  0.945209222
     0.237884299  0.061903522  0.945209222
[...]
   0.141E+03 0.301E+02 -.409E+02   -.151E+03 -.555E+02 0.715E+02   0.953E+01 0.253E+02 -.306E+02   -.551E-02 0.196E-02 0.157E-02
   0.163E+03 -.596E+02 0.277E+02   -.176E+03 0.938E+02 -.528E+02   0.125E+02 -.342E+02 0.250E+02   -.508E-02 -.458E-03 -.249E-02
   -.300E+02 0.171E+03 0.277E+02   0.655E+01 -.199E+03 -.528E+02   0.234E+02 0.279E+02 0.250E+02   0.289E-02 -.443E-02 -.266E-02
   -.133E+03 -.112E+03 0.277E+02   0.169E+03 0.105E+03 -.528E+02   -.359E+02 0.629E+01 0.250E+02   0.258E-02 0.466E-02 -.234E-02
   -.163E+03 0.596E+02 0.277E+02   0.176E+03 -.938E+02 -.528E+02   -.125E+02 0.342E+02 0.250E+02   0.508E-02 0.458E-03 -.249E-02
   0.300E+02 -.171E+03 0.277E+02   -.655E+01 0.199E+03 -.528E+02   -.234E+02 -.279E+02 0.250E+02   -.289E-02 0.443E-02 -.266E-02
   0.133E+03 0.112E+03 0.277E+02   -.169E+03 -.105E+03 -.528E+02   0.359E+02 -.629E+01 0.250E+02   -.258E-02 -.466E-02 -.234E-02
   0.330E+02 0.169E+03 -.289E+02   -.103E+02 -.196E+03 0.548E+02   -.227E+02 0.276E+02 -.258E+02   -.256E-02 0.221E-02 0.253E-02
   -.163E+03 -.558E+02 -.289E+02   0.175E+03 0.893E+02 0.548E+02   -.126E+02 -.334E+02 -.258E+02   -.455E-02 0.426E-02 0.265E-02
   0.130E+03 -.113E+03 -.289E+02   -.165E+03 0.107E+03 0.548E+02   0.353E+02 0.582E+01 -.258E+02   -.642E-02 0.135E-02 0.244E-02
   -.330E+02 -.169E+03 -.289E+02   0.103E+02 0.196E+03 0.548E+02   0.227E+02 -.276E+02 -.258E+02   0.256E-02 -.221E-02 0.253E-02
   0.163E+03 0.558E+02 -.289E+02   -.175E+03 -.893E+02 0.548E+02   0.126E+02 0.334E+02 -.258E+02   0.455E-02 -.426E-02 0.265E-02
   -.130E+03 0.113E+03 -.289E+02   0.165E+03 -.107E+03 0.548E+02   -.353E+02 -.582E+01 -.258E+02   0.642E-02 -.135E-02 0.244E-02
   -.450E+02 0.139E+03 0.395E+02   0.275E+02 -.160E+03 -.696E+02   0.175E+02 0.215E+02 0.301E+02   0.517E-02 0.731E-03 -.414E-02
   -.977E+02 -.108E+03 0.395E+02   0.125E+03 0.104E+03 -.696E+02   -.273E+02 0.440E+01 0.301E+02   -.285E-02 0.340E-02 -.461E-02
   0.143E+03 -.304E+02 0.395E+02   -.152E+03 0.563E+02 -.696E+02   0.984E+01 -.259E+02 0.301E+02   -.239E-02 -.409E-02 -.466E-02
   0.450E+02 -.139E+03 0.395E+02   -.275E+02 0.160E+03 -.696E+02   -.175E+02 -.215E+02 0.301E+02   -.517E-02 -.731E-03 -.414E-02
   0.977E+02 0.108E+03 0.395E+02   -.125E+03 -.104E+03 -.696E+02   0.273E+02 -.440E+01 0.301E+02   0.285E-02 -.340E-02 -.461E-02
   -.143E+03 0.304E+02 0.395E+02   0.152E+03 -.563E+02 -.696E+02   -.984E+01 0.259E+02 0.301E+02   0.239E-02 0.409E-02 -.466E-02
   0.957E+02 0.425E+02 0.677E+01   -.102E+03 -.460E+02 -.734E+01   0.676E+01 0.351E+01 0.583E+00   0.120E-02 -.109E-03 -.728E-03
   -.847E+02 0.616E+02 0.677E+01   0.911E+02 -.657E+02 -.734E+01   -.642E+01 0.410E+01 0.583E+00   -.783E-03 0.192E-02 -.697E-03
   -.110E+02 -.104E+03 0.677E+01   0.113E+02 0.112E+03 -.734E+01   -.343E+00 -.761E+01 0.583E+00   -.124E-02 -.134E-02 0.116E-03
   -.957E+02 -.425E+02 0.677E+01   0.102E+03 0.460E+02 -.734E+01   -.676E+01 -.351E+01 0.583E+00   -.120E-02 0.109E-03 -.728E-03
   0.847E+02 -.616E+02 0.677E+01   -.911E+02 0.657E+02 -.734E+01   0.642E+01 -.410E+01 0.583E+00   0.783E-03 -.192E-02 -.697E-03
   0.110E+02 0.104E+03 0.677E+01   -.113E+02 -.112E+03 -.734E+01   0.343E+00 0.761E+01 0.583E+00   0.124E-02 0.134E-02 0.116E-03
   -.764E+02 0.743E+02 0.220E+02   0.824E+02 -.787E+02 -.233E+02   -.601E+01 0.444E+01 0.124E+01   0.724E-04 -.142E-03 0.612E-03
   -.261E+02 -.103E+03 0.220E+02   0.270E+02 0.111E+03 -.233E+02   -.837E+00 -.742E+01 0.124E+01   0.696E-04 0.120E-03 0.550E-03
   0.103E+03 0.290E+02 0.220E+02   -.109E+03 -.320E+02 -.233E+02   0.685E+01 0.299E+01 0.124E+01   0.675E-04 -.100E-03 0.492E-03
   0.764E+02 -.743E+02 0.220E+02   -.824E+02 0.787E+02 -.233E+02   0.601E+01 -.444E+01 0.124E+01   -.724E-04 0.142E-03 0.612E-03
   0.261E+02 0.103E+03 0.220E+02   -.270E+02 -.111E+03 -.233E+02   0.837E+00 0.742E+01 0.124E+01   -.696E-04 -.120E-03 0.550E-03
   -.103E+03 -.290E+02 0.220E+02   0.109E+03 0.320E+02 -.233E+02   -.685E+01 -.299E+01 0.124E+01   -.675E-04 0.100E-03 0.492E-03
   0.211E+02 -.104E+03 -.175E+02   -.218E+02 0.112E+03 0.185E+02   0.702E+00 -.751E+01 -.996E+00   0.836E-03 -.104E-03 0.183E-03
   0.797E+02 0.704E+02 -.175E+02   -.859E+02 -.748E+02 0.185E+02   0.616E+01 0.436E+01 -.996E+00   -.788E-03 0.402E-03 -.616E-03
   -.101E+03 0.338E+02 -.175E+02   0.108E+03 -.370E+02 0.185E+02   -.686E+01 0.315E+01 -.996E+00   -.650E-03 0.517E-04 -.967E-03
   -.211E+02 0.104E+03 -.175E+02   0.218E+02 -.112E+03 0.185E+02   -.702E+00 0.751E+01 -.996E+00   -.836E-03 0.104E-03 0.183E-03
   -.797E+02 -.704E+02 -.175E+02   0.859E+02 0.748E+02 0.185E+02   -.616E+01 -.436E+01 -.996E+00   0.788E-03 -.402E-03 -.616E-03
   0.101E+03 -.338E+02 -.175E+02   -.108E+03 0.370E+02 0.185E+02   0.686E+01 -.315E+01 -.996E+00   0.650E-03 -.517E-04 -.967E-03
[...]
   0.376E+01 -.285E+02 -.134E+02   -.527E+01 0.348E+02 0.154E+02   0.151E+01 -.627E+01 -.205E+01   0.464E-04 0.270E-04 -.213E-03
   0.228E+02 0.175E+02 -.134E+02   -.275E+02 -.219E+02 0.154E+02   0.468E+01 0.444E+01 -.205E+01   0.418E-04 0.157E-04 -.194E-03
   -.265E+02 0.110E+02 -.134E+02   0.327E+02 -.128E+02 0.154E+02   -.619E+01 0.183E+01 -.205E+01   -.140E-04 -.843E-04 -.161E-03
   -.376E+01 0.285E+02 -.134E+02   0.527E+01 -.348E+02 0.154E+02   -.151E+01 0.627E+01 -.205E+01   -.464E-04 -.270E-04 -.213E-03
   -.228E+02 -.175E+02 -.134E+02   0.275E+02 0.219E+02 0.154E+02   -.468E+01 -.444E+01 -.205E+01   -.418E-04 -.157E-04 -.194E-03
   0.265E+02 -.110E+02 -.134E+02   -.327E+02 0.128E+02 0.154E+02   0.619E+01 -.183E+01 -.205E+01   0.140E-04 0.843E-04 -.161E-03
   0.465E-08 -.456E-08 0.614E+02   0.477E-07 -.276E-07 -.689E+02   -.212E-21 0.424E-21 0.748E+01   -.288E-04 0.167E-04 0.187E-03
   -.306E-08 0.783E-08 0.614E+02   -.477E-07 0.276E-07 -.689E+02   -.424E-21 -.847E-21 0.748E+01   0.288E-04 -.167E-04 0.187E-03
   -.448E+00 0.259E+00 -.200E+01   -.137E+00 0.794E-01 -.141E+01   0.867E-17 -.347E-17 0.340E+01   0.937E-04 -.545E-04 0.849E-03
   0.448E+00 -.259E+00 -.200E+01   0.137E+00 -.794E-01 -.141E+01   -.347E-17 0.347E-17 0.340E+01   -.937E-04 0.545E-04 0.849E-03
   0.449E+00 -.259E+00 -.734E+01   0.136E+00 -.786E-01 0.384E+01   -.173E-17 0.000E+00 0.349E+01   0.317E-03 -.183E-03 0.623E-03
   -.449E+00 0.259E+00 -.734E+01   -.136E+00 0.786E-01 0.384E+01   0.520E-17 0.000E+00 0.349E+01   -.317E-03 0.183E-03 0.623E-03
   -.134E-07 -.149E-06 0.450E+01   -.436E-06 0.252E-06 -.107E+01   0.000E+00 0.000E+00 -.343E+01   0.698E-04 -.400E-04 -.141E-02
   -.110E-06 -.633E-07 0.450E+01   0.436E-06 -.252E-06 -.107E+01   -.271E-19 0.271E-19 -.343E+01   -.698E-04 0.400E-04 -.141E-02
   -.168E-06 -.249E-06 0.690E+01   -.209E-13 -.164E-12 0.155E-12   -.160E-13 -.444E-15 -.689E+01   -.348E-09 0.592E-10 -.171E-01

 POSITION                                       TOTAL-FORCE (eV/Angst)
      2.11764      3.60088      4.84071        -0.000718      0.000452     -0.000122
      8.35467      0.03332      4.84071        -0.000032     -0.000847     -0.000122
      8.32575      7.21853      4.84071         0.000750      0.000396     -0.000122
      4.14848      7.25202      0.71462         0.000718     -0.000452     -0.000122
     -2.08855     10.81958      0.71462         0.000032      0.000847     -0.000122
     -2.05964      3.63438      0.71462        -0.000750     -0.000396     -0.000122
      3.67285      2.85366      3.66165        -0.000933      0.001277      0.001118
      8.22419      1.75378      3.66165        -0.000639     -0.001447      0.001118
      6.90104      6.24530      3.66165         0.001572      0.000170      0.001118
      2.59327      7.99924      7.78775         0.000933     -0.001277      0.001118
     -1.95807      9.09912      7.78775         0.000639      0.001447      0.001118
     -0.63492      4.60761      7.78775        -0.001572     -0.000170      0.001118
      4.38737      1.66336      1.90946         0.000878     -0.000710      0.001010
      8.89775      2.96773      1.90946         0.000176      0.001115      0.001010
      5.51294      6.22165      1.90946        -0.001054     -0.000405      0.001010
      1.87875      9.18955      6.03556        -0.000878      0.000710      0.001010
     -2.63163      7.88517      6.03556        -0.000176     -0.001115      0.001010
      0.75318      4.63126      6.03556         0.001054      0.000405      0.001010
      1.95088      5.32595      3.65795         0.000051     -0.000800      0.000621
      0.67827      9.87944      3.65795         0.000667      0.000445      0.000621
     -2.62886      6.50058      3.65795        -0.000719      0.000356      0.000621
      4.31524      5.52695      7.78405        -0.000051      0.000800      0.000621
      5.58785      0.97346      7.78405        -0.000667     -0.000445      0.000621
      8.89498      4.35232      7.78405         0.000719     -0.000356      0.000621
      2.56225      6.55431      1.89266        -0.000299      0.000514      0.001432
     -0.69120      9.79472      1.89266        -0.000296     -0.000516      0.001432
     -1.87075      5.35694      1.89266         0.000595      0.000002      0.001432
      3.70387      4.29859      6.01875         0.000299     -0.000514      0.001432
      6.95732      1.05819      6.01875         0.000296      0.000516      0.001432
      8.13687      5.49596      6.01875        -0.000595     -0.000002      0.001432
      0.71484      2.58175      3.67395         0.002522     -0.001022     -0.000378
      3.67284     10.18110      3.67395        -0.000376      0.002695     -0.000378
     -4.38739      8.94313      3.67395        -0.002146     -0.001673     -0.000378
      5.55128      8.27116      7.80005        -0.002522      0.001022     -0.000378
      2.59328      0.67180      7.80005         0.000376     -0.002695     -0.000378
     10.65351      1.90978      7.80005         0.002146      0.001673     -0.000378
     -0.64660      2.63790      1.90153        -0.001577     -0.000697     -0.002603
      4.30493      8.97398      1.90153         0.001392     -0.001017     -0.002603
     -3.65804     10.09409      1.90153         0.000185      0.001714     -0.002603
      6.91272      8.21500      6.02762         0.001577      0.000697     -0.002603
      1.96119      1.87893      6.02762        -0.001392      0.001017     -0.002603
      9.92416      0.75881      6.02762        -0.000185     -0.001714     -0.002603
      3.49136      1.98598      2.74294        -0.002652     -0.001618     -0.000336
      9.06636      2.03045      2.74294         0.002727     -0.001488     -0.000336
      6.24035      6.83631      2.74294        -0.000075      0.003106     -0.000336
      2.77476      8.86692      6.86904         0.002652      0.001618     -0.000336
     -2.80024      8.82246      6.86904        -0.002727      0.001488     -0.000336
      0.02577      4.01660      6.86904         0.000075     -0.003106     -0.000336
      2.73120      5.57682      2.67816         0.001918     -0.001906     -0.001138
      0.07085     10.42978      2.67816         0.000692      0.002614     -0.001138
     -2.80176      5.69937      2.67816        -0.002610     -0.000708     -0.001138
      3.53492      5.27608      6.80426        -0.001918      0.001906     -0.001138
      6.19527      0.42312      6.80426        -0.000692     -0.002614     -0.001138
      9.06788      5.15353      6.80426         0.002610      0.000708     -0.001138
     -0.03149      3.20642      2.86480         0.000224      0.002689     -0.000370
      3.50503      9.22242      2.86480        -0.002441     -0.001150     -0.000370
     -3.47325      9.27714      2.86480         0.002217     -0.001539     -0.000370
      6.29761      7.64649      6.99090        -0.000224     -0.002689     -0.000370
      2.76109      1.63048      6.99090         0.002441      0.001150     -0.000370
      9.73937      1.57577      6.99090        -0.002217      0.001539     -0.000370
[...]
      6.26665      3.61722      1.33857        -0.000000      0.000000      0.001630
     -0.23046      0.97124      1.43624         0.001066     -0.001288     -0.001320
      5.54023     10.16770      1.43624         0.000582      0.001567     -0.001320
     -5.30948     10.56703      1.43624        -0.001648     -0.000280     -0.001320
      6.49658      9.88166      5.56234        -0.001066      0.001288     -0.001320
      0.72589      0.68521      5.56234        -0.000582     -0.001567     -0.001320
     11.57560      0.28587      5.56234         0.001648      0.000280     -0.001320
      0.00000      0.00000      0.08843         0.000000     -0.000000      0.000958
      0.00000      0.00000      4.21452         0.000000     -0.000000      0.000958
      6.26665      3.61722      4.44507         0.000000     -0.000000      0.001357
     -0.00053      7.23569      0.31897        -0.000000      0.000000      0.001357
     -0.00053      7.23569      4.44246         0.000000     -0.000000      0.002293
      6.26665      3.61722      0.31636        -0.000000      0.000000      0.002293
      0.00000      0.00000      1.11027         0.000000     -0.000000     -0.003085
      0.00000      0.00000      5.23637         0.000000     -0.000000     -0.003085
    total drift:                               -0.000000     -0.000000      0.000440

  FREE ENERGIE OF THE ION-ELECTRON SYSTEM (eV)
  free  energy   TOTEN  =      -662.53404602 eV

  energy  without entropy=     -662.53404602  energy(sigma->0) =     -662.53404602

 total charge

[...]

 magnetization (x)

# of ion       s       p       d       tot
    1        0.001  -0.001   1.579   1.579
    2        0.001  -0.001   1.579   1.579
    3        0.001  -0.001   1.579   1.579
    4       -0.001   0.001  -1.579  -1.579
    5       -0.001   0.001  -1.579  -1.579
    6       -0.001   0.001  -1.579  -1.579
    7        0.005   0.042   0.000   0.047
    8        0.005   0.042   0.000   0.047
    9        0.005   0.042   0.000   0.047
   10       -0.005  -0.042   0.000  -0.047
   11       -0.005  -0.042   0.000  -0.047
   12       -0.005  -0.042   0.000  -0.047
   13       -0.004  -0.047   0.000  -0.052
   14       -0.004  -0.047   0.000  -0.052
   15       -0.004  -0.047   0.000  -0.052
   16        0.004   0.047   0.000   0.052
   17        0.004   0.047   0.000   0.052
   18        0.004   0.047   0.000   0.052
   19        0.005   0.043   0.000   0.047
   20        0.005   0.043   0.000   0.047
   21        0.005   0.043   0.000   0.047
   22       -0.005  -0.043   0.000  -0.047
   23       -0.005  -0.043   0.000  -0.047
   24       -0.005  -0.043   0.000  -0.047
   25       -0.004  -0.046   0.000  -0.050
   26       -0.004  -0.046   0.000  -0.050
   27       -0.004  -0.046   0.000  -0.050
   28        0.004   0.046   0.000   0.050
   29        0.004   0.046   0.000   0.050
   30        0.004   0.046   0.000   0.050
   31        0.004   0.046   0.000   0.050
   32        0.004   0.046   0.000   0.050
   33        0.004   0.046   0.000   0.050
   34       -0.004  -0.046   0.000  -0.050
   35       -0.004  -0.046   0.000  -0.050
   36       -0.004  -0.046   0.000  -0.050
   37       -0.005  -0.043   0.000  -0.048
   38       -0.005  -0.043   0.000  -0.048
   39       -0.005  -0.043   0.000  -0.048
   40        0.005   0.043   0.000   0.048
   41        0.005   0.043   0.000   0.048
   42        0.005   0.043   0.000   0.048
   43        0.000   0.000   0.000   0.000
   44        0.000   0.000   0.000   0.000
   45        0.000   0.000   0.000   0.000
   46       -0.000  -0.000   0.000  -0.000
   47       -0.000  -0.000   0.000  -0.000
   48       -0.000  -0.000   0.000  -0.000
   49        0.000  -0.000   0.000   0.000
   50        0.000  -0.000   0.000   0.000
   51        0.000  -0.000   0.000   0.000
   52       -0.000   0.000   0.000  -0.000
   53       -0.000   0.000   0.000  -0.000
   54       -0.000   0.000   0.000  -0.000
   55       -0.000   0.000   0.000  -0.000
   56       -0.000   0.000   0.000  -0.000
   57       -0.000   0.000   0.000  -0.000
   58        0.000  -0.000   0.000   0.000
   59        0.000  -0.000   0.000   0.000
   60        0.000  -0.000   0.000   0.000
[...]
   94       -0.000  -0.000   0.000  -0.000
   95        0.000  -0.000   0.000  -0.000
   96        0.000  -0.000   0.000  -0.000
   97        0.000  -0.000   0.000  -0.000
   98       -0.000   0.000   0.000   0.000
   99       -0.000   0.000   0.000   0.000
  100       -0.000   0.000   0.000   0.000
  101       -0.000  -0.000   0.000  -0.000
  102        0.000   0.000   0.000   0.000
  103        0.000   0.001   0.000   0.001
  104       -0.000  -0.001   0.000  -0.001
  105        0.000   0.001   0.000   0.001
  106       -0.000  -0.001   0.000  -0.001
  107       -0.000  -0.001   0.000  -0.001
  108        0.000   0.001   0.000   0.001
tot          0.000   0.000   0.000   0.000