 vasp.6.3.0 20Jan22 (build Apr  5 2022 13:58:26) complex

 INCAR:
   AMIX = 0.1
   SYMPREC = 1.0d-3
   IVDW = 11           (DFT-D3 method of method with no damping)
   ISPIN = 2 (Spin polarised DFT)
   ISTART = 1            (Read existing wavefunction
   ICHARG = 11         (Non-self-consistent: GGA/LDA band structures)
   LORBIT = 11
   LASPH = T
   GGA_COMPAT = .FALSE.
   LREAL = .FALSE.       (Projection operators: automatic)
   ENCUT = 850.0      (Cut-off energy for plane wave basis set, in eV)
   PREC = Accurate     (Precision level)
   LMAXMIX = 4
   LWAVE = F
   LCHARG = F
   ADDGRID = .TRUE.        (Increase grid
   LPLANE = .TRUE.      (Real space distribution
   NWRITE = 2           (Medium-level output)
   KPAR = 2           (Divides k-grid into separate groups)
   NSW = 0          (number of ionic steps)
   ISMEAR = 0            (gaussian smearing method )
   SIGMA = 0.01         (please check the width of the smearing)
   IBRION = -1            (Algorithm: 0-MD
   ISIF = 3            (optimize atomic coordinates and lattice parameters)
   EDIFFG = -0.005       (Ionic convergence
   EDIFF = 1.0d-8
   NELM = 50
   NELMIN = 4
   NELMDL = -6
   ALGO = Normal
   KSPACING = 0.20
   KGAMMA = T
   MAGMOM = 4 4 4 -4 -4 -4 36*0 18*0 42*0 6*0
   LCALCPOL = T

 POTCAR:    PAW_PBE Fe_pv 02Aug2007
 POTCAR:    PAW_PBE O 08Apr2002
 POTCAR:    PAW_PBE C 08Apr2002
 POTCAR:    PAW_PBE H 15Jun2001
 POTCAR:    PAW_PBE N 08Apr2002
|           W    W    AA    RRRRR   N    N  II  N    N   GGGG   !!!           |
|           W    W   A  A   R    R  NN   N  II  NN   N  G    G  !!!           |
|           W    W  A    A  R    R  N N  N  II  N N  N  G       !!!           |
|           W WW W  AAAAAA  RRRRR   N  N N  II  N  N N  G  GGG   !            |
|           WW  WW  A    A  R   R   N   NN  II  N   NN  G    G                |
|           W    W  A    A  R    R  N    N  II  N    N   GGGG   !!!           |
|     For optimal performance we recommend to set                             |
|       NCORE = 2 up to number-of-cores-per-socket                            |
|     This setting can greatly improve the performance of VASP for DFT.       |
|     The default, NCORE=1 might be grossly inefficient on modern             |
|     multi-core architectures or massively parallel machines. Do your        |
|     Unfortunately you need to use the default for GW and RPA                |
|     calculations (for HF NCORE is supported but not extensively tested      |
|     yet).                                                                   |

   TITEL  = PAW_PBE Fe_pv 02Aug2007
   POMASS =   55.847; ZVAL   =   14.000    mass and valenz
   ENMAX  =  293.238; ENMIN  =  219.928 eV

   TITEL  = PAW_PBE O 08Apr2002
   POMASS =   16.000; ZVAL   =    6.000    mass and valenz
   ENMAX  =  400.000; ENMIN  =  300.000 eV

[...]

   TITEL  = PAW_PBE H 15Jun2001
   POMASS =    1.000; ZVAL   =    1.000    mass and valenz
   ENMAX  =  250.000; ENMIN  =  200.000 eV

   TITEL  = PAW_PBE N 08Apr2002
   POMASS =   14.001; ZVAL   =    5.000    mass and valenz
   ENMAX  =  400.000; ENMIN  =  300.000 eV

  PAW_PBE Fe_pv 02Aug2007               :
  PAW_PBE O 08Apr2002                   :
  PAW_PBE C 08Apr2002                   :
  PAW_PBE H 15Jun2001                   :
  PAW_PBE N 08Apr2002                   :

 POSCAR: crystal
  positions in direct lattice
  velocities in cartesian coordinates
 exchange correlation table for  LEXCH =        8
   RHO(1)=    0.500       N(1)  =     2000
   RHO(2)=  100.500       N(2)  =     4000

 ion  position               nearest neighbor table
   1  0.337  0.330  0.589-   7 2.11  41 2.12  18 2.13  19 2.14  28 2.17  31 2.18
   2  0.670  0.007  0.589-   8 2.11  42 2.12  16 2.13  20 2.14  29 2.17  32 2.18
   3  0.993  0.663  0.589-   9 2.11  40 2.12  17 2.13  21 2.14  30 2.17  33 2.18
   4  0.663  0.670  0.089-  10 2.11  38 2.12  15 2.13  22 2.14  25 2.17  34 2.18
   5  0.330  0.993  0.089-  11 2.11  39 2.12  13 2.13  23 2.14  26 2.17  35 2.18
   6  0.007  0.337  0.089-  12 2.11  37 2.12  14 2.13  24 2.14  27 2.17  36 2.18
   7  0.426  0.264  0.439-  43 1.28   1 2.11
   8  0.736  0.162  0.439-  44 1.28   2 2.11
   9  0.838  0.574  0.439-  45 1.28   3 2.11
  10  0.574  0.736  0.939-  46 1.28   4 2.11
  11  0.264  0.838  0.939-  47 1.28   5 2.11
  12  0.162  0.426  0.939-  48 1.28   6 2.11
  13  0.425  0.152  0.234-  43 1.26   5 2.13
  14  0.848  0.274  0.234-  44 1.26   6 2.13
  15  0.726  0.575  0.234-  45 1.26   4 2.13
  16  0.575  0.848  0.734-  46 1.26   2 2.13
  17  0.152  0.726  0.734-  47 1.26   3 2.13
  18  0.274  0.425  0.734-  48 1.26   1 2.13
  19  0.403  0.491  0.444-  49 1.28   1 2.14
  20  0.509  0.913  0.444-  50 1.28   2 2.14
  21  0.087  0.597  0.444-  51 1.28   3 2.14
  22  0.597  0.509  0.944-  52 1.28   4 2.14
  23  0.491  0.087  0.944-  53 1.28   5 2.14
  24  0.913  0.403  0.944-  54 1.28   6 2.14
  25  0.498  0.605  0.231-  49 1.27   4 2.17
  26  0.395  0.892  0.231-  50 1.27   5 2.17
  27  0.108  0.502  0.231-  51 1.27   6 2.17
  28  0.502  0.395  0.731-  52 1.27   1 2.17
  29  0.605  0.108  0.731-  53 1.27   2 2.17
  30  0.892  0.498  0.731-  54 1.27   3 2.17
  31  0.168  0.231  0.451-  55 1.26   1 2.18
  32  0.769  0.937  0.451-  56 1.26   2 2.18
  33  0.063  0.832  0.451-  57 1.26   3 2.18
  34  0.832  0.769  0.951-  58 1.26   4 2.18
  35  0.231  0.063  0.951-  59 1.26   5 2.18
  36  0.937  0.168  0.951-  60 1.26   6 2.18
  37  0.072  0.244  0.236-  55 1.28   6 2.12
  38  0.756  0.827  0.236-  56 1.28   4 2.12
  39  0.173  0.928  0.236-  57 1.28   5 2.12
  40  0.928  0.756  0.736-  58 1.28   3 2.12
  41  0.244  0.173  0.736-  59 1.28   1 2.12
  42  0.827  0.072  0.736-  60 1.28   2 2.12
  43  0.371  0.184  0.331-  61 1.10  13 1.26   7 1.28
  44  0.816  0.187  0.331-  62 1.10  14 1.26   8 1.28
  45  0.813  0.629  0.331-  63 1.10  15 1.26   9 1.28
  46  0.629  0.816  0.831-  64 1.10  16 1.26  10 1.28
  47  0.184  0.813  0.831-  65 1.10  17 1.26  11 1.28
  48  0.187  0.371  0.831-  66 1.10  18 1.26  12 1.28
  49  0.467  0.513  0.319-  67 1.10  25 1.27  19 1.28
  50  0.487  0.955  0.319-  68 1.10  26 1.27  20 1.28
  51  0.045  0.533  0.319-  69 1.10  27 1.27  21 1.28
  52  0.533  0.487  0.819-  70 1.10  28 1.27  22 1.28
  53  0.513  0.045  0.819-  71 1.10  29 1.27  23 1.28
  54  0.955  0.467  0.819-  72 1.10  30 1.27  24 1.28
  55  0.138  0.291  0.359-  73 1.10  31 1.26  37 1.28
  56  0.709  0.847  0.359-  74 1.10  32 1.26  38 1.28
  57  0.153  0.862  0.359-  75 1.10  33 1.26  39 1.28
  58  0.862  0.709  0.859-  76 1.10  34 1.26  40 1.28
  59  0.291  0.153  0.859-  77 1.10  35 1.26  41 1.28
  60  0.847  0.138  0.859-  78 1.10  36 1.26  42 1.28
[...]
  94  0.667  0.333  0.157- 106 1.02
  95  0.028  0.090  0.182- 107 1.05
  96  0.910  0.938  0.182- 107 1.05
  97  0.062  0.972  0.182- 107 1.05
  98  0.972  0.910  0.682- 108 1.05
  99  0.090  0.062  0.682- 108 1.05
 100  0.938  0.028  0.682- 108 1.05
 101  0.000  1.000  0.023- 107 1.02
 102  1.000  1.000  0.523- 108 1.02
 103  0.667  0.333  0.534-  85 1.02  80 1.05  81 1.05  79 1.05
 104  0.333  0.667  0.034-  86 1.02  83 1.05  84 1.05  82 1.05
 105  0.333  0.667  0.537-  93 1.02  88 1.05  89 1.05  87 1.05
 106  0.667  0.333  0.037-  94 1.02  91 1.05  92 1.05  90 1.05
 107  0.000  0.000  0.143- 101 1.02  97 1.05  95 1.05  96 1.05
 108  1.000  1.000  0.643- 102 1.02 100 1.05  98 1.05  99 1.05

  LATTYP: Found a hexagonal cell.
 ALAT       =    12.5137873691
 C/A-ratio  =     0.6794287558

  Lattice vectors:

 A1 = (  12.5137873680,  -0.0001631237,  -0.0000126352)
 A2 = (  -6.2567845784,  10.8372861575,  -0.0000000002)
 A3 = (   0.0000000280,   0.0000000163,   8.5022269824)

Analysis of symmetry for initial positions (statically):
 Subroutine PRICEL returns:
 Original cell was already a primitive cell.

 Routine SETGRP: Setting up the symmetry group for a
 hexagonal supercell.

 Subroutine GETGRP returns: Found  6 space group operations
 (whereof  3 operations were pure point group operations)
 out of a pool of 24 trial point group operations.

The static configuration has the point symmetry C_3 .
 The point group associated with its full space group is C_6 .

Analysis of symmetry for dynamics (positions and initial velocities):
 Subroutine PRICEL returns:
 Original cell was already a primitive cell.

[...]

The dynamic configuration has the point symmetry C_3 .
 The point group associated with its full space group is C_6 .

Analysis of structural, dynamic, and magnetic symmetry:
 Subroutine PRICEL returns:
 Original cell was already a primitive cell.

 Routine SETGRP: Setting up the symmetry group for a
 hexagonal supercell.

 Subroutine GETGRP returns: Found  6 space group operations
 (whereof  3 operations were pure point group operations)
 out of a pool of 24 trial point group operations.

The overall configuration has the point symmetry C_3 .
 The point group associated with its full space group is C_6 .

 Subroutine INISYM returns: Found  6 space group operations
 (whereof  3 operations are pure point group operations),
 and found     1 'primitive' translations

                                     Primitive cell

  volume of cell :    1153.0250

  direct lattice vectors                    reciprocal lattice vectors
    12.513787368 -0.000163124 -0.000012635     0.079912459  0.046136555 -0.000000000
    -6.256784578 10.837286158 -0.000000000     0.000001203  0.092274718 -0.000000000
     0.000000028  0.000000016  8.502226982     0.000000119  0.000000069  0.117616244

  length of vectors
    12.513787369 12.513757410  8.502226982     0.092274497  0.092274718  0.117616244

  position of ions in fractional coordinates (direct lattice)
     0.337250615  0.330055345  0.588667538
     0.669945936  0.007196245  0.588667407
     0.992803708  0.662749275  0.588669309
     0.662748235  0.669945585  0.088667728
     0.330053474  0.992803985  0.088667197
     0.007198712  0.337251545  0.088667989
     0.425966231  0.264249954  0.439318097
     0.735751118  0.161716857  0.439321257
     0.838282046  0.574032581  0.439322444
     0.574030459  0.735751676  0.939315937
     0.264247682  0.838280933  0.939318767
     0.161719284  0.425967079  0.939316214
     0.425411523  0.151858312  0.233520066
     0.848139763  0.273552307  0.233519338
     0.726447242  0.574588037  0.233520191
     0.574590297  0.848143318  0.733517166
     0.151857457  0.726446763  0.733518888
     0.273554928  0.425409873  0.733517871
     0.403220063  0.490534537  0.444153351
     0.509464553  0.912680610  0.444152179
     0.087317231  0.596782161  0.444152576
     0.596777717  0.509460003  0.944150361
     0.490535937  0.087316950  0.944147679
     0.912680559  0.403218649  0.944149926
     0.497535286  0.605134227  0.230820613
     0.394860658  0.892401415  0.230820977
     0.107599095  0.502462282  0.230821451
     0.502457654  0.394863113  0.730818223
     0.605138272  0.107597655  0.730819507
     0.892402195  0.497540498  0.730819801
     0.167781990  0.230570212  0.451195664
     0.769429442  0.937212439  0.451193155
     0.062788647  0.832219587  0.451194134
     0.832221500  0.769433158  0.951195154
     0.230566188  0.062786871  0.951190425
[...]
   0.172E+03 0.410E+01 -.300E+02   -.179E+03 -.255E+02 0.632E+02   0.763E+01 0.214E+02 -.332E+02   -.252E-02 -.356E-02 0.115E-02
   0.201E+03 -.556E+02 0.874E+01   -.214E+03 0.908E+02 -.330E+02   0.127E+02 -.351E+02 0.242E+02   0.409E-02 0.132E-02 -.269E-02
   -.523E+02 0.202E+03 0.872E+01   0.283E+02 -.230E+03 -.329E+02   0.241E+02 0.286E+02 0.242E+02   -.728E-02 0.568E-02 -.649E-03
   -.149E+03 -.146E+03 0.872E+01   0.185E+03 0.140E+03 -.329E+02   -.368E+02 0.654E+01 0.242E+02   -.104E-02 0.758E-03 0.383E-02
   -.201E+03 0.556E+02 0.875E+01   0.214E+03 -.908E+02 -.329E+02   -.127E+02 0.351E+02 0.242E+02   -.526E-02 0.117E-02 0.208E-02
   0.523E+02 -.202E+03 0.874E+01   -.283E+02 0.230E+03 -.329E+02   -.241E+02 -.286E+02 0.242E+02   0.599E-02 -.465E-02 -.351E-02
   0.149E+03 0.146E+03 0.873E+01   -.185E+03 -.140E+03 -.329E+02   0.368E+02 -.654E+01 0.242E+02   -.195E-03 0.639E-02 -.144E-02
   0.554E+02 0.192E+03 -.177E+02   -.318E+02 -.219E+03 0.437E+02   -.237E+02 0.276E+02 -.260E+02   -.109E-03 0.191E-02 -.995E-03
   -.194E+03 -.478E+02 -.177E+02   0.206E+03 0.821E+02 0.437E+02   -.121E+02 -.343E+02 -.260E+02   0.312E-02 0.413E-02 0.158E-02
   0.138E+03 -.144E+03 -.177E+02   -.174E+03 0.137E+03 0.437E+02   0.358E+02 0.667E+01 -.260E+02   -.238E-02 -.287E-02 0.265E-02
   -.555E+02 -.192E+03 -.177E+02   0.318E+02 0.219E+03 0.437E+02   0.237E+02 -.276E+02 -.260E+02   0.362E-02 0.452E-03 0.179E-02
   0.194E+03 0.478E+02 -.177E+02   -.206E+03 -.821E+02 0.437E+02   0.121E+02 0.343E+02 -.260E+02   0.714E-03 -.828E-03 0.352E-02
   -.138E+03 0.144E+03 -.177E+02   0.174E+03 -.137E+03 0.437E+02   -.358E+02 -.667E+01 -.260E+02   -.289E-02 -.200E-04 0.501E-02
   -.855E+02 0.148E+03 0.230E+02   0.712E+02 -.167E+03 -.552E+02   0.143E+02 0.188E+02 0.322E+02   0.653E-03 -.141E-02 -.281E-02
   -.852E+02 -.148E+03 0.230E+02   0.109E+03 0.145E+03 -.552E+02   -.234E+02 0.295E+01 0.322E+02   -.683E-03 0.114E-02 -.325E-02
   0.171E+03 0.147E+00 0.230E+02   -.180E+03 0.216E+02 -.552E+02   0.915E+01 -.217E+02 0.322E+02   -.767E-02 0.484E-02 -.268E-02
   0.855E+02 -.148E+03 0.230E+02   -.712E+02 0.167E+03 -.552E+02   -.143E+02 -.188E+02 0.322E+02   0.291E-02 0.193E-02 -.268E-02
   0.853E+02 0.148E+03 0.229E+02   -.109E+03 -.145E+03 -.552E+02   0.234E+02 -.295E+01 0.322E+02   0.196E-02 -.347E-02 0.196E-03
   -.171E+03 -.174E+00 0.230E+02   0.180E+03 -.216E+02 -.552E+02   -.915E+01 0.217E+02 0.322E+02   0.330E-03 -.494E-02 0.265E-02
   0.916E+02 0.349E+02 0.823E+01   -.984E+02 -.381E+02 -.886E+01   0.682E+01 0.317E+01 0.635E+00   -.784E-03 -.264E-04 -.177E-02
   -.760E+02 0.619E+02 0.823E+01   0.822E+02 -.662E+02 -.886E+01   -.616E+01 0.432E+01 0.635E+00   0.697E-03 0.700E-03 -.593E-03
   -.156E+02 -.967E+02 0.822E+01   0.162E+02 0.104E+03 -.885E+01   -.663E+00 -.750E+01 0.635E+00   0.174E-04 0.454E-03 -.157E-02
   -.916E+02 -.349E+02 0.822E+01   0.984E+02 0.380E+02 -.884E+01   -.682E+01 -.317E+01 0.635E+00   0.105E-02 0.944E-03 -.670E-03
   0.760E+02 -.619E+02 0.822E+01   -.822E+02 0.662E+02 -.886E+01   0.616E+01 -.432E+01 0.635E+00   -.230E-03 0.910E-04 -.301E-03
   0.156E+02 0.968E+02 0.822E+01   -.162E+02 -.104E+03 -.887E+01   0.663E+00 0.750E+01 0.635E+00   0.838E-03 -.685E-03 -.842E-03
   -.615E+02 0.808E+02 0.363E+02   0.668E+02 -.852E+02 -.385E+02   -.531E+01 0.441E+01 0.219E+01   0.171E-02 -.190E-02 0.755E-03
   -.392E+02 -.937E+02 0.363E+02   0.404E+02 0.101E+03 -.385E+02   -.116E+01 -.680E+01 0.219E+01   -.114E-02 0.151E-02 0.686E-03
   0.101E+03 0.129E+02 0.363E+02   -.107E+03 -.153E+02 -.385E+02   0.647E+01 0.239E+01 0.219E+01   -.264E-03 0.181E-03 0.793E-03
   0.615E+02 -.808E+02 0.363E+02   -.668E+02 0.852E+02 -.385E+02   0.531E+01 -.441E+01 0.219E+01   -.128E-02 0.543E-03 0.116E-02
   0.392E+02 0.937E+02 0.363E+02   -.404E+02 -.101E+03 -.385E+02   0.116E+01 0.680E+01 0.219E+01   -.410E-03 -.112E-02 0.513E-03
   -.101E+03 -.129E+02 0.363E+02   0.107E+03 0.153E+02 -.385E+02   -.647E+01 -.239E+01 0.219E+01   0.540E-03 0.946E-03 -.900E-04
   0.356E+02 -.995E+02 -.317E+02   -.369E+02 0.107E+03 0.335E+02   0.124E+01 -.700E+01 -.182E+01   0.753E-03 -.961E-03 0.377E-03
   0.684E+02 0.806E+02 -.317E+02   -.738E+02 -.852E+02 0.335E+02   0.544E+01 0.458E+01 -.182E+01   0.374E-03 0.632E-03 -.561E-03
   -.104E+03 0.189E+02 -.317E+02   0.111E+03 -.213E+02 0.335E+02   -.668E+01 0.242E+01 -.182E+01   -.110E-02 -.115E-04 0.118E-02
   -.356E+02 0.995E+02 -.317E+02   0.369E+02 -.107E+03 0.335E+02   -.124E+01 0.700E+01 -.182E+01   -.241E-03 0.110E-02 0.124E-02
   -.684E+02 -.806E+02 -.317E+02   0.738E+02 0.852E+02 0.335E+02   -.544E+01 -.458E+01 -.182E+01   -.490E-03 0.773E-04 0.633E-04
   0.104E+03 -.189E+02 -.317E+02   -.111E+03 0.213E+02 0.335E+02   0.668E+01 -.242E+01 -.182E+01   -.124E-03 -.119E-02 0.113E-02
[...]
   0.194E+01 -.281E+02 -.139E+02   -.332E+01 0.344E+02 0.160E+02   0.138E+01 -.633E+01 -.208E+01   0.113E-03 0.747E-04 0.577E-04
   0.233E+02 0.157E+02 -.139E+02   -.281E+02 -.201E+02 0.160E+02   0.479E+01 0.436E+01 -.208E+01   0.154E-03 0.268E-07 0.135E-04
   -.253E+02 0.124E+02 -.139E+02   0.314E+02 -.143E+02 0.160E+02   -.617E+01 0.197E+01 -.208E+01   0.943E-04 0.556E-04 0.738E-04
   -.193E+01 0.281E+02 -.139E+02   0.331E+01 -.344E+02 0.160E+02   -.138E+01 0.633E+01 -.208E+01   0.701E-04 -.609E-04 -.104E-03
   -.233E+02 -.157E+02 -.139E+02   0.281E+02 0.201E+02 0.160E+02   -.479E+01 -.436E+01 -.208E+01   0.752E-04 -.189E-03 -.513E-04
   0.253E+02 -.124E+02 -.139E+02   -.314E+02 0.143E+02 0.160E+02   0.617E+01 -.197E+01 -.208E+01   -.107E-03 -.192E-03 0.238E-04
   -.129E-02 0.132E-02 0.615E+02   -.128E-02 -.891E-03 -.690E+02   0.246E-07 0.143E-07 0.748E+01   0.798E-04 -.350E-04 0.277E-04
   0.144E-02 0.501E-03 0.615E+02   0.702E-03 0.589E-03 -.690E+02   0.246E-07 0.143E-07 0.748E+01   0.570E-04 -.180E-03 -.105E-04
   0.110E-03 -.369E-02 0.292E+01   -.681E-02 -.446E-03 -.579E+01   0.942E-08 0.549E-08 0.286E+01   0.668E-03 0.155E-03 -.213E-02
   0.672E-02 -.304E-02 0.292E+01   0.632E-02 -.320E-03 -.579E+01   0.942E-08 0.549E-08 0.286E+01   -.104E-02 -.136E-02 -.234E-02
   0.490E-02 -.167E-01 -.121E+02   0.806E-02 -.102E-01 0.864E+01   0.114E-07 0.665E-08 0.347E+01   0.556E-04 -.155E-03 0.761E-03
   -.303E-02 0.102E-01 -.121E+02   -.793E-02 0.975E-02 0.864E+01   0.114E-07 0.665E-08 0.347E+01   0.125E-02 -.500E-03 -.263E-03
   -.215E-01 -.132E-02 0.269E+01   -.767E-02 -.271E-02 0.422E+00   -.102E-07 -.596E-08 -.311E+01   0.163E-02 0.231E-03 0.896E-03
   0.217E-01 0.116E-01 0.269E+01   0.269E-02 0.407E-03 0.420E+00   -.102E-07 -.596E-08 -.311E+01   0.713E-03 -.206E-02 -.572E-03
   0.235E+00 0.433E-01 0.897E+01   -.176E-12 0.616E-12 -.519E-12   -.296E-07 -.172E-07 -.899E+01   -.185E-01 -.178E-02 0.168E-01

 POSITION                                       TOTAL-FORCE (eV/Angst)
      2.15520      3.57685      5.00498         0.000857      0.000745     -0.000852
      8.33854      0.07788      5.00498        -0.001074      0.000370     -0.000852
      8.27706      7.18224      5.00499         0.000217     -0.001115     -0.000852
      4.10179      7.26028      0.75386        -0.000857     -0.000745     -0.000852
     -2.08154     10.75925      0.75386         0.001074     -0.000370     -0.000852
     -2.02003      3.65489      0.75388        -0.000217      0.001115     -0.000852
      3.67710      2.86368      3.73518         0.001005      0.000875      0.001973
      8.19521      1.75245      3.73520        -0.001261      0.000433      0.001973
      6.89849      6.22082      3.73521         0.000255     -0.001308      0.001973
      2.57986      7.97346      7.98627        -0.001005     -0.000875      0.001973
     -1.93820      9.08465      7.98630         0.001261     -0.000433      0.001973
     -0.64146      4.61630      7.98628        -0.000255      0.001308      0.001973
      4.37336      1.64566      1.98544         0.001445     -0.000571     -0.000790
      8.90188      2.96443      1.98542        -0.000228      0.001537     -0.000790
      5.49553      6.22686      1.98543        -0.001218     -0.000966     -0.000789
      1.88365      9.19148      6.23652        -0.001445      0.000571     -0.000789
     -2.64491      7.87269      6.23654         0.000228     -0.001537     -0.000789
      0.76151      4.61024      6.23653         0.001218      0.000966     -0.000790
      1.97664      5.31600      3.77629        -0.003209     -0.000360      0.003274
      0.66489      9.89090      3.77628         0.001916     -0.002599      0.003274
     -2.64127      6.46748      3.77628         0.001293      0.002958      0.003274
      4.28037      5.52107      8.02737         0.003209      0.000360      0.003274
      5.59214      0.94620      8.02735        -0.001916      0.002599      0.003274
      8.89824      4.36965      8.02737        -0.001293     -0.002958      0.003274
      2.43986      6.55793      1.96248        -0.001627      0.003257     -0.000083
     -0.64236      9.67115      1.96249        -0.002008     -0.003037     -0.000083
     -1.79733      5.44531      1.96250         0.003634     -0.000220     -0.000083
      3.81707      4.27916      6.21358         0.001627     -0.003257     -0.000083
      6.89936      1.16597      6.21359         0.002008      0.003037     -0.000083
      8.05433      5.39184      6.21358        -0.003634      0.000220     -0.000083
      0.65696      2.49873      3.83617        -0.001473      0.000804     -0.002106
      3.76454     10.15671      3.83614         0.000040     -0.001678     -0.002106
     -4.42129      9.01899      3.83615         0.001433      0.000874     -0.002106
      5.60007      8.33843      8.08727         0.001473     -0.000804     -0.002106
      2.49241      0.68040      8.08723        -0.000040      0.001678     -0.002106
     10.67829      1.81812      8.08728        -0.001433     -0.000874     -0.002106
     -0.63187      2.64706      2.00612         0.002046     -0.000961      0.001944
      4.28051      8.96640      2.00613        -0.000191      0.002252      0.001944
     -3.64841     10.06098      2.00612        -0.001855     -0.001292      0.001944
      6.88890      8.19004      6.25723        -0.002046      0.000961      0.001944
      1.97648      1.87076      6.25724         0.000191     -0.002252      0.001944
      9.90540      0.77617      6.25724         0.001855      0.001292      0.001944
      3.48645      1.99496      2.81453         0.000799     -0.000349     -0.001959
      9.04284      2.02171      2.81452        -0.000098      0.000866     -0.001959
      6.24146      6.82027      2.81452        -0.000701     -0.000518     -0.001959
      2.77050      8.84217      7.06561        -0.000799      0.000349     -0.001959
     -2.78584      8.81540      7.06564         0.000098     -0.000866     -0.001959
      0.01554      4.01684      7.06565         0.000701      0.000518     -0.001959
      2.64152      5.55693      2.71093        -0.000507     -0.002819      0.000629
      0.12373     10.34626      2.71091         0.002695      0.000970      0.000629
     -2.76504      5.77117      2.71094        -0.002188      0.001848      0.000629
      3.61547      5.28014      6.96202         0.000507      0.002819      0.000629
      6.13327      0.49089      6.96206        -0.002695     -0.000970      0.000629
      9.02201      5.06594      6.96205         0.002188     -0.001848      0.000629
     -0.09200      3.14825      3.05346        -0.001147      0.001434      0.000617
      3.57651      9.18333      3.05344        -0.000669     -0.001710      0.000617
     -3.48430      9.34282      3.05346         0.001816      0.000276      0.000617
      6.34902      7.68889      7.30455         0.001147     -0.001434      0.000617
      2.68047      1.65380      7.30457         0.000669      0.001710      0.000617
      9.74130      1.49428      7.30454        -0.001816     -0.000276      0.000617
[...]
      6.25692      3.61233      1.33602         0.000000      0.000000      0.001694
     -0.20953      0.97386      1.54316        -0.001723      0.001042     -0.000830
      5.51834     10.16873      1.54317        -0.000041     -0.002013     -0.000830
     -5.30866     10.53180      1.54319         0.001763      0.000971     -0.000830
      6.46652      9.86324      5.79427         0.001723     -0.001042     -0.000830
      0.73866      0.66836      5.79428         0.000041      0.002013     -0.000830
     11.56566      0.30532      5.79429        -0.001763     -0.000971     -0.000830
     -6.25677     10.83727      0.19269        -0.000000     -0.000000     -0.001390
      6.25699     10.83712      4.44379        -0.000000     -0.000000     -0.001390
      6.25693      3.61233      4.53773        -0.000000     -0.000000     -0.002369
      0.00006      7.22480      0.28662        -0.000000     -0.000000     -0.002369
      0.00007      7.22483      4.56429        -0.000000     -0.000000     -0.001289
      6.25693      3.61230      0.31317        -0.000000     -0.000000     -0.001289
      0.00003      0.00000      1.21516        -0.000000     -0.000000     -0.000989
      6.25697     10.83711      5.46625        -0.000000     -0.000000     -0.000989
    total drift:                                0.216138      0.041561     -0.000429

  FREE ENERGIE OF THE ION-ELECTRON SYSTEM (eV)
  free  energy   TOTEN  =      -680.52478131 eV

  energy  without entropy=     -680.52478131  energy(sigma->0) =     -680.52478131

 total charge

[...]

 magnetization (x)

# of ion       s       p       d       tot
    1        0.017   0.016   3.565   3.598
    2        0.017   0.016   3.565   3.598
    3        0.017   0.016   3.565   3.598
    4       -0.017  -0.016  -3.565  -3.598
    5       -0.017  -0.016  -3.565  -3.598
    6       -0.017  -0.016  -3.565  -3.598
    7        0.004   0.031   0.000   0.036
    8        0.004   0.031   0.000   0.036
    9        0.004   0.031   0.000   0.036
   10       -0.004  -0.031   0.000  -0.036
   11       -0.004  -0.031   0.000  -0.036
   12       -0.004  -0.031   0.000  -0.036
   13       -0.004  -0.027   0.000  -0.031
   14       -0.004  -0.027   0.000  -0.031
   15       -0.004  -0.027   0.000  -0.031
   16        0.004   0.027   0.000   0.031
   17        0.004   0.027   0.000   0.031
   18        0.004   0.027   0.000   0.031
   19        0.005   0.028   0.000   0.033
   20        0.005   0.028   0.000   0.033
   21        0.005   0.028   0.000   0.033
   22       -0.005  -0.028   0.000  -0.033
   23       -0.005  -0.028   0.000  -0.033
   24       -0.005  -0.028   0.000  -0.033
   25       -0.004  -0.028   0.000  -0.032
   26       -0.004  -0.028   0.000  -0.032
   27       -0.004  -0.028   0.000  -0.032
   28        0.004   0.028   0.000   0.032
   29        0.004   0.028   0.000   0.032
   30        0.004   0.028   0.000   0.032
   31        0.004   0.021   0.000   0.025
   32        0.004   0.021   0.000   0.025
   33        0.004   0.021   0.000   0.025
   34       -0.004  -0.021   0.000  -0.025
   35       -0.004  -0.021   0.000  -0.025
   36       -0.004  -0.021   0.000  -0.025
   37       -0.004  -0.028   0.000  -0.032
   38       -0.004  -0.028   0.000  -0.032
   39       -0.004  -0.028   0.000  -0.032
   40        0.004   0.028   0.000   0.032
   41        0.004   0.028   0.000   0.032
   42        0.004   0.028   0.000   0.032
   43        0.000   0.005   0.000   0.006
   44        0.000   0.005   0.000   0.006
   45        0.000   0.005   0.000   0.006
   46       -0.000  -0.005   0.000  -0.006
   47       -0.000  -0.005   0.000  -0.006
   48       -0.000  -0.005   0.000  -0.006
   49        0.000  -0.005   0.000  -0.004
   50        0.000  -0.005   0.000  -0.004
   51        0.000  -0.005   0.000  -0.004
   52       -0.000   0.005   0.000   0.004
   53       -0.000   0.005   0.000   0.004
   54       -0.000   0.005   0.000   0.004
   55       -0.001  -0.001   0.000  -0.001
   56       -0.001  -0.001   0.000  -0.001
   57       -0.001  -0.001   0.000  -0.001
   58        0.001   0.001   0.000   0.001
   59        0.001   0.001   0.000   0.001
   60        0.001   0.001   0.000   0.001
[...]
   94        0.000  -0.000   0.000  -0.000
   95        0.000  -0.000   0.000  -0.000
   96        0.000  -0.000   0.000  -0.000
   97        0.000  -0.000   0.000  -0.000
   98       -0.000   0.000   0.000   0.000
   99       -0.000   0.000   0.000   0.000
  100       -0.000   0.000   0.000   0.000
  101        0.000  -0.000   0.000  -0.000
  102       -0.000   0.000   0.000   0.000
  103        0.000   0.001   0.000   0.001
  104       -0.000  -0.001   0.000  -0.001
  105        0.000   0.001   0.000   0.002
  106       -0.000  -0.001   0.000  -0.002
  107       -0.000  -0.001   0.000  -0.001
  108        0.000   0.001   0.000   0.001
tot         -0.000   0.000   0.000  -0.000